NAME: Prehumulone
msLevel: MS2
RETENTIONTIME: 18.172
centroided: TRUE
PRECURSORMZ: 375.1817
precursorCharge: 0
TITLE: msLevel 2; retentionTime 1090.32; scanNum NA; scanIndex 0; precMz 375.1817; precCharge 0
SMILES: CC(=CCC1=C(C(=C(C(CC=C(C)C)(C1=O)O)O)C(=O)CCC(C)C)O)C
FORMULA: C22H32O5
Num Peaks: 78
41.14222336 2839.1076660156
41.68619919 2919.2243652344
41.68722153 7979.4174804688
41.69125366 7654.83203125
44.25554657 2420.9934082031
46.89428329 2582.1508789063
50.63606644 2778.2414550781
54.55787277 2216.9304199219
55.51469803 2520.9926757813
63.31020737 2464.0876464844
65.90894318 2778.2475585938
70.57401276 2479.6020507813
86.46221924 2376.4880371094
98.00080109 34316.63671875
98.42302704 2419.8120117188
99.08132935 2877.41015625
101.0608749 3718.7282714844
107.3739471 2399.5192871094
123.0814514 5552.71875
125.0607529 49643.1171875
139.0765686 7230.5502929688
154.0634613 22011.56640625
157.3882141 2782.6059570313
163.0397034 4765.197265625
165.0191345 4071.0236816406
166.9984131 6842
167.0710449 12342.9541015625
174.0192566 2725.1057128906
180.0426483 18963.66015625
180.0791473 5453.9389648438
181.0507507 5236.5463867188
182.0583649 15011.775390625
183.0660706 7953.677734375
193.0141907 4021.8942871094
193.086792 18921.009765625
194.0945892 3330.9658203125
195.029892 2966.6416015625
195.0659485 8985.4462890625
207.066803 4153.8500976563
209.0457153 8133.2934570313
210.0536346 23218.74609375
219.1023712 5719.7265625
221.0818481 25893.3828125
223.09758 15381.8408203125
226.6716003 3412.0495605469
235.0612335 4937.2373046875
235.0974121 111171.25
235.4815979 2674.7438964844
236.0686188 6569.1225585938
238.084549 10489.818359375
247.0974731 23043.783203125
250.0846405 5766.6616210938
250.1572876 3992.4494628906
251.0925293 22782.708984375
251.1287079 66640.8984375
253.1551666 3074.8068847656
262.1202698 3888.9108886719
263.073822 4111.470703125
263.0924072 128187.2734375
263.1109924 3835.9685058594
263.1273804 11791.7265625
268.8127136 2621.0034179688
273.0762939 5316.2978515625
278.1465149 2920.6027832031
279.1237488 55216.32421875
288.1002197 8115.7592773438
289.1438599 4728.2680664063
291.123291 10716.431640625
301.1805115 3270.0051269531
305.1377563 3829.0510253906
306.1471252 541486.5
329.1758423 3701.1079101563
343.63974 3002.2770996094
357.1704712 8936.5859375
357.2062073 6627.01171875
375.1812134 234128.359375
375.2174377 185524.8125
382.4240112 2806.7980957031

NAME: Benzyl lupulone
msLevel: MS2
RETENTIONTIME: 18.18425
centroided: TRUE
PRECURSORMZ: 447.2536
precursorCharge: 1
TITLE: msLevel 2; retentionTime 1091.055; scanNum NA; scanIndex 0; precMz 447.2536; precCharge 1
SMILES: CC(=CCC1C(=O)C(=C(C(CC=C(C)C)(CC=C(C)C)C1=O)O)C(=O)Cc1ccccc1)C
FORMULA: C29H36O5
Num Peaks: 110
42.0207901 5505.1176757813
44.55339813 2792.822265625
46.82230377 2551.4113769531
47.3164444 2646.1943359375
49.69396591 13692.916015625
49.69556808 50129.8671875
55.59843826 2446.4594726563
65.00343323 5088.3403320313
74.22238922 3248.5444335938
79.10697937 3219.2080078125
91.05544281 9056.5595703125
99.50256348 3352.4582519531
109.0659943 4720.296875
111.1311111 2945.2644042969
112.5608978 3316.4709472656
115.725502 2862.552734375
117.0347977 5618.0649414063
132.6112671 2837.1909179688
133.0656738 16403.341796875
135.0817871 6115.5048828125
149.0245361 7188.8745117188
151.0038147 8928.1953125
156.0413208 2867.1870117188
159.0450134 15127.1416015625
161.0256348 2890.8310546875
163.0040131 5132.4321289063
165.0190277 3083.142578125
171.0814667 3508.8041992188
173.0971375 5994.0327148438
175.0033112 17020.603515625
175.0762024 5439.6899414063
176.011322 6044.8291015625
183.0654144 3130.2426757813
185.0614471 3915.0187988281
187.0401917 3797.5595703125
187.0762024 3324.0771484375
189.0193176 7991.1782226563
189.0922546 6493.5893554688
190.3399353 2947.0788574219
199.0763245 10740.658203125
201.0192108 22508.205078125
201.0558624 8520.2470703125
201.1285095 4726.6103515625
203.0721436 4909.0278320313
205.0869904 11060.9599609375
214.0637207 6898.017578125
215.0713043 5181.9916992188
217.0868683 51401.13671875
217.15979 4558.8759765625
218.0577393 2846.1682128906
219.0660706 4739.1455078125
219.1393127 7451.4702148438
225.1283569 4282.701171875
226.6669769 3842.7497558594
227.1087952 3445.2946777344
228.0426941 4466.9545898438
229.0507812 14896.908203125
231.0658569 13345.2890625
233.0823669 5696.689453125
239.0708313 9461.455078125
241.0506897 5838.166015625
242.0581665 69048.015625
243.0532074 1838.4356689453
243.0661163 130315.7265625
243.1392975 7981.1787109375
244.0733948 8464.5185546875
245.118454 3819.2268066406
253.0498505 3354.6723632813
255.0661469 39147.87109375
255.4508972 2862.6306152344
259.1339417 9052.375
263.0696411 3367.1296386719
267.0473328 6857.75390625
267.0661926 243878.875
267.0852661 4572.4282226563
277.0866089 4697.173828125
279.1393738 3834.96875
280.0752563 4887.359375
285.2233276 4579.2451171875
287.1288147 73399.25
289.1239624 5582.6450195313
291.1385803 7596.5834960938
292.0734863 4898.8037109375
293.1181946 29493.447265625
295.0973816 17621.453125
303.1041565 2771.5417480469
305.1180725 4822.3745117188
307.1335144 18069.759765625
309.1135254 7919.7124023438
310.1209106 79079.0390625
317.1181335 25395.087890625
319.1701355 3129.1538085938
320.1064148 4977.4252929688
321.1130676 53954.734375
322.1203918 6421.556640625
323.1289062 134832.03125
329.2110596 3873.2172851563
335.0762024 9154.7412109375
335.1287231 1204062.5
335.1997986 10531.8681640625
350.1894836 8554.5732421875
355.1932983 6342.1704101563
363.1599731 58134.4296875
363.1865234 5104.0424804688
377.1753235 17978.626953125
378.1835022 146495.453125
379.1914368 4841.0473632813
403.2640076 55656.5546875
447.1733093 7650.0922851563
447.2536316 1416693.125

NAME: Adprehumulone
msLevel: MS2
RETENTIONTIME: 18.3566333333333
centroided: TRUE
PRECURSORMZ: 375.217
precursorCharge: 1
TITLE: msLevel 2; retentionTime 1101.398; scanNum NA; scanIndex 0; precMz 375.217; precCharge 1
SMILES: CCCC(C)C(=O)C1=C(C(=C(C(CC=C(C)C)(C1=O)O)O)CC=C(C)C)O
FORMULA: C22H32O5
Num Peaks: 87
41.69125748 100156.4375
45.62117386 9601.3642578125
46.10218811 9170.09375
46.52501678 9049.810546875
62.35364151 9968.97265625
76.5379715 13568.525390625
91.84461975 9312.765625
96.68756866 13061.2314453125
98.00080109 17771.189453125
122.3492508 9563.6083984375
123.0089417 21842.640625
125.0608292 40877.515625
135.0812836 11699.6962890625
137.0243378 17074.6328125
138.0325012 16772.986328125
139.0764771 44347.63671875
140.9854584 10847.2255859375
148.2885437 9630.357421875
151.0037079 24258.720703125
151.039917 16752.548828125
164.0117035 11940.5087890625
164.0481415 17442.26953125
165.0190582 48930.03515625
168.0062714 23448.849609375
175.0529175 11213.5439453125
178.026474 13057.5673828125
179.070694 12515.837890625
180.0422974 13587.6572265625
180.0788879 15883.82421875
181.0145416 14880.5703125
182.0210571 10564.2119140625
190.063324 13451.716796875
192.0426941 25232.7421875
193.0141602 112245.4609375
193.0868225 212360.203125
194.0948944 57203.5703125
205.0867615 17793.94140625
207.0305939 11986.9130859375
207.0658875 38278.01953125
207.1030579 27722.806640625
208.0747986 11119.1171875
209.0821075 15610.326171875
217.0869751 26437.984375
219.1029053 12549.4873046875
221.0455933 19853.638671875
221.0679474 13539.16796875
221.0817413 417374.34375
222.0899963 22418.798828125
223.0975494 225272.875
223.1110992 19610.44921875
235.0644684 23413.603515625
235.0973511 1399016.5
236.0687714 100053.1796875
237.0762177 18382.318359375
238.0844727 136652.71875
245.0816498 21187.58203125
245.118103 12758.78125
249.0768433 45262.35546875
249.1130829 13679.626953125
250.0839996 41766.05078125
250.1574402 32347.107421875
251.0921936 277030.28125
251.1277008 15599.2314453125
259.1340637 14889.767578125
261.1498718 19676.572265625
263.0923157 1701506.625
263.128418 193389.734375
273.1124878 23136.384765625
277.1082458 19991.99609375
277.1446533 43264.62109375
278.1499023 19640.15234375
279.1238403 23180.0546875
288.1368408 32106.34765625
289.1449585 36402.953125
291.1240234 117899.7421875
305.1387939 30310.310546875
306.0875549 19122.919921875
306.1009521 49270.3046875
306.1101074 45647.58984375
306.1468811 7004056.5
306.1838684 39565.84765625
306.1929932 48131.3359375
307.1515808 15948.5166015625
357.2068481 43434.78125
370.5656738 11050.35546875
375.18573 95087.53125
375.2173157 2575099.5

NAME: Lupulone, Adlupulone
msLevel: MS2
RETENTIONTIME: 18.52
centroided: TRUE
PRECURSORMZ: 413.2687
precursorCharge: 1
TITLE: msLevel 2; retentionTime 1111.2; scanNum NA; scanIndex 0; precMz 413.2687; precCharge 1
SMILES: CC(=CCC1=C(C(CC=C(C)C)(CC=C(C)C)C(=O)C(=C1O)C(=O)CC(C)C)O)C
FORMULA: C26H38O4
Num Peaks: 71
42.06877136 145093.390625
45.91796112 728429.6875
45.91936874 3733998
58.50616837 136548.46875
67.90079498 157022.484375
68.25340271 159564.828125
75.03543091 146393.421875
91.89505768 138626.046875
93.48955536 128130.0078125
103.3189011 174955.96875
125.0605469 894196.1875
152.0115356 1050979.875
152.1955261 138303.203125
177.0194397 224602.296875
190.0271759 317032.9375
199.0762024 151864.96875
201.056015 151565.46875
205.0869141 509127.375
208.0738678 2016602.75
217.0868988 1572495.75
219.0660706 173223.40625
220.4491882 176611.96875
221.0819244 1243872.5
226.6688232 200407.9375
230.0584259 234631.53125
231.0662231 324747.875
231.1378937 129121.984375
233.0817108 9489022
241.3240204 133276.890625
243.0664062 512187.78125
245.0819702 1163364.5
245.1183319 471604.53125
245.1530457 146523.8125
246.0881958 175593.625
251.4854736 135392.6875
252.0856628 129057.4453125
257.1543274 369199.84375
259.1333923 1663892.375
261.1139221 744995.625
261.1495972 239525.4375
271.0968018 186928.75
273.1129456 139947.1875
273.1498718 532232
275.1282349 475290.46875
276.1365967 3890339.25
283.1333313 816483.875
283.8365173 147640.015625
285.5839844 159075.03125
286.1217041 211645.671875
287.1287231 2452993.5
288.1361389 396582.03125
289.1285706 120050.3828125
289.1443176 6564046
296.9026184 146531.515625
301.0996094 412434.3125
301.1442261 57728172
301.2158508 301966.03125
316.2048035 187603.34375
329.1757202 3655468.75
343.1911926 910876.75
344.1721191 287993.90625
344.1991577 9006457
344.226532 178024.8125
345.206604 288573.375
369.2797241 1874053.5
381.9143066 158900.5625
406.0471497 155333.421875
413.1973877 690812.875
413.2691345 94679776
413.3269043 441734.28125
413.3420105 693118.5

NAME: 2-prenyllupulone
msLevel: MS2
RETENTIONTIME: 18.7167333333333
centroided: TRUE
PRECURSORMZ: 425.2689
precursorCharge: 1
TITLE: msLevel 2; retentionTime 1123.004; scanNum NA; scanIndex 0; precMz 425.2689; precCharge 1
SMILES: CC(=CCC1=C(C(CC=C(C)C)(CC=C(C)C)C(=O)C(=C1O)C(=O)CC=C(C)C)O)C
FORMULA: C27H38O4
Num Peaks: 54
47.25270844 21463.9375
62.46259689 2609.533203125
70.14574432 2486.72265625
71.35673523 2761.4331054688
88.76779175 2504.8220214844
104.2596207 2368.4428710938
109.0655899 3294.328125
113.2184677 2455.0173339844
122.8312683 2628.3347167969
122.9580536 2633.2412109375
135.0818024 4128.2368164063
137.060318 5503.7426757813
164.9992981 2421.1081542969
175.0771637 3113.1467285156
177.0192871 7129.8364257813
189.019455 3488.3264160156
198.5662994 2483.2312011719
201.0192871 10419.8974609375
205.0866852 3446.6640625
217.086853 17209.39453125
218.0582275 2417.3095703125
219.0658875 3159.5747070313
219.1385803 2763.3400878906
220.073761 7839.4833984375
226.6719666 2861.4509277344
228.2724304 2657.2116699219
229.0505371 4256.2661132813
231.0658722 5007.8979492188
233.0813599 9073.080078125
243.0662079 39602.2265625
243.1389465 2796.8825683594
245.0815735 68975.3203125
259.1331787 2774.447265625
269.1547241 3606.1628417969
271.097229 3065.7282714844
271.1339417 10406.5634765625
273.1129761 4733.6162109375
285.1491089 6175.9995117188
287.1289062 31487.14453125
288.1365662 27814.306640625
295.1332703 6171.7954101563
299.1295471 11925.931640625
301.1444092 46910.28125
313.1442566 387872.59375
323.6037598 2659.9387207031
327.1599121 2638.458984375
328.2023621 3420.6555175781
341.1750793 25214.26171875
355.1911316 7687.0478515625
356.1989441 48724.62109375
356.2249146 4535.7783203125
381.2811279 16262.2197265625
425.2692871 564357
448.4822388 2562.2014160156

NAME: dihydroprehumulone
msLevel: MS2
RETENTIONTIME: 18.9122333333333
centroided: TRUE
PRECURSORMZ: 377.1984
precursorCharge: 0
TITLE: msLevel 2; retentionTime 1134.734; scanNum NA; scanIndex 0; precMz 377.1984; precCharge 0
SMILES: CC(C)CCC1=C(C(CC=C(C)C)(C(=O)C(=C1O)C(=O)CCC(C)C)O)O
FORMULA: C22H34O5
Num Peaks: 75
41.91121292 4877.2553710938
41.91408157 4655.2299804688
41.91529465 27769.90234375
43.68898773 2547.998046875
44.98323059 3000.8747558594
45.53821564 2784.6003417969
47.68028641 2586.3176269531
73.53807068 2890.9575195313
95.7255249 3029.455078125
98.00105286 5903.1469726563
107.0501938 4082.9040527344
111.0820084 2705.6928710938
125.0243149 6081.017578125
125.0606232 33507.0546875
138.0322723 3592.1499023438
139.0764771 5753.7573242188
150.0321503 4527.2084960938
151.0038757 5749.9213867188
153.0194855 10287.8994140625
154.0635529 6399.798828125
166.0269012 2825.7453613281
167.0345459 4463.5668945313
179.1082611 5090.552734375
181.0140533 32049.572265625
181.0500793 5559.2446289063
181.0861664 3946.0734863281
182.0218964 16700.583984375
182.058136 6666.8291015625
193.1596527 2594.3681640625
195.0294647 23348.744140625
195.0661926 39924.9296875
197.0818939 5493.7216796875
205.0866241 12521.017578125
207.1023407 9273.978515625
209.0454254 18557.470703125
209.0818024 23050.173828125
210.0531921 4093.4431152344
219.1027679 5444.0161132813
221.1181488 5738.1928710938
223.0606537 4539.7436523438
223.0973511 301315.28125
233.0810089 5916.8413085938
237.0766296 27588.33984375
237.112915 126276.25
237.1483307 3245.4025878906
238.0844116 44101.31640625
247.0979462 4417.4399414063
251.0922394 386821.1875
251.109726 6216.2299804688
251.128006 11995.8955078125
252.1002045 78069.015625
261.1503296 5660.685546875
263.1650391 6930.1430664063
265.1079102 222370.125
265.1439819 8115.5473632813
266.1159363 3219.8381347656
279.1236267 12093.2158203125
279.15802 4875.8413085938
281.1395264 34019.9375
281.1748962 5296.4125976563
290.1515198 10561.5751953125
291.1600037 6242.6186523438
293.1389465 6560.7163085938
307.1554565 5005.2758789063
308.1164856 9473.5546875
308.1257019 15513.8916015625
308.1624756 2118132.5
308.1799316 31891.396484375
308.1982422 13678.380859375
308.2090759 14631.697265625
331.7999268 3426.9560546875
359.221405 21043.744140625
377.1683044 5088.8056640625
377.196991 129973.6640625
377.232605 762691.75

NAME: prehulupone
msLevel: MS2
RETENTIONTIME: 18.9826333333333
centroided: TRUE
PRECURSORMZ: 345.2068
precursorCharge: 1
TITLE: msLevel 2; retentionTime 1138.958; scanNum NA; scanIndex 0; precMz 345.2068; precCharge 1
SMILES: CC(C)CCC(=O)C1C(=O)C(=O)C(CC=C(C)C)(CC=C(C)C)C1=O
FORMULA: C21H30O4
Num Peaks: 37
40.09068298 2435.4077148438
41.54449463 2534.423828125
42.81922913 2169.2255859375
48.08110809 2178.0888671875
48.18296814 2662.7224121094
48.98972702 2197.7868652344
50.24203873 2243.0825195313
50.30793381 2188.8508300781
55.63103485 2012.8098144531
59.91007996 2404.7631835938
62.2238121 2188.5502929688
71.8004837 2939.1232910156
85.11688995 2576.0217285156
103.6236115 2046.1533203125
116.6447372 2171.8544921875
124.0164261 9745.7568359375
135.5647278 2282.7644042969
139.0762329 10630.375
149.1809998 2520.0563964844
167.5125732 2582.763671875
180.078949 26517.58203125
191.0714111 6064.375
205.0500336 7913.3696289063
208.0738678 17532.037109375
219.0662384 8174.869140625
221.0822449 2706.8178710938
226.6739655 3047.302734375
233.0814056 17089.76171875
233.1180115 18151.373046875
247.1340027 2758.2875976563
248.1412201 11713.0537109375
257.5044556 2593.5739746094
261.1132507 15466.3564453125
275.128479 4843.0073242188
276.136261 35712.94921875
345.2067871 168967.015625
345.2464294 3060.6899414063

NAME: Adhexahumulone
msLevel: MS2
RETENTIONTIME: 19.0708
centroided: TRUE
PRECURSORMZ: 389.2329
precursorCharge: 1
TITLE: msLevel 2; retentionTime 1144.248; scanNum NA; scanIndex 0; precMz 389.2329; precCharge 1
SMILES: CCCCC(C)C(=O)C1=C(C(=C(C(CC=C(C)C)(C1=O)O)O)CC=C(C)C)O
FORMULA: C23H34O5
Num Peaks: 41
43.24871445 8290.1943359375
43.57460403 2747.4064941406
47.42538452 2621.1137695313
50.12079239 2277.1477050781
59.73265076 2669.9431152344
60.39140701 2351.8498535156
100.4404144 2267.9951171875
112.9348526 2468.5427246094
117.8820953 2587.5634765625
119.6856995 2240.1555175781
121.3098602 2695.2763671875
124.5312958 2908.1931152344
135.6208038 2251.0949707031
137.0249481 2714.7016601563
138.7236633 2430.7080078125
165.019455 3132.6579589844
192.042572 2935.9846191406
193.0141754 7322.6850585938
207.066391 3155.3256835938
207.102829 12916.6845703125
208.0736084 2684.9177246094
209.4530334 2430.6606445313
216.2276306 2328.677734375
226.6686401 4042.6682128906
226.680481 2636.8015136719
231.1027527 3320.4995117188
235.0973511 40086.92578125
236.0691071 6056.705078125
237.1138763 11330.4462890625
249.1130981 79237.09375
249.129364 3444.9489746094
250.0853577 4522.6103515625
252.1004181 9410.41015625
263.0917969 16232.6298828125
265.1080322 17301.04296875
277.1080627 107729.4375
277.1443481 16661.646484375
305.1383667 12721.001953125
320.1627502 499137.9375
389.1997375 7895.4814453125
389.2330322 236679.484375

NAME: Prelupulone/+Adprelupulone
msLevel: MS2
RETENTIONTIME: 19.1902333333333
centroided: TRUE
PRECURSORMZ: 427.2844
precursorCharge: 1
TITLE: msLevel 2; retentionTime 1151.414; scanNum NA; scanIndex 0; precMz 427.2844; precCharge 1
SMILES: CC(=CCC1=C(C(CC=C(C)C)(CC=C(C)C)C(=O)C(=C1O)C(=O)CCC(C)C)O)C
FORMULA: C27H40O4
Num Peaks: 83
43.36974335 18010.37890625
47.47521973 112589.203125
47.47671127 470221.71875
48.62496567 18691.953125
106.8907089 18970.2890625
133.0657654 21651.392578125
137.0971222 65039.13671875
138.3070984 21840.345703125
139.0762177 263570.71875
148.0166168 34571.84765625
149.0242157 24711.927734375
152.0112915 158370.78125
163.1127625 41095.0859375
173.0970459 32324.19140625
175.0043335 24360.0625
179.0349274 26624.818359375
183.2112274 19307.048828125
190.0270844 40080.828125
190.6862793 18128.833984375
191.723053 24094.984375
193.0869904 20435.9296875
199.8079224 21201.646484375
202.0267639 29350.337890625
205.086853 83313.9375
205.1598206 28589.14453125
217.0504303 90494.5703125
217.0867615 285440.53125
218.9226074 23911.896484375
222.0895844 346998.3125
226.6683807 21457.947265625
229.0505371 32111.755859375
233.081955 44915.3125
235.0973511 306411.90625
243.065979 121529.8671875
245.0816345 120878.1875
245.1182251 36185.05859375
245.1546021 22501.67578125
247.0855865 38677.42578125
247.0972595 1699161
247.1138458 26835.484375
255.1377411 29977.265625
257.0813904 25116.62890625
257.1187134 31490.087890625
257.1547852 21659.5859375
258.0903931 23762.58984375
259.0975952 46413.14453125
259.1337891 68777.2734375
260.105957 29515.705078125
269.1551514 25639.970703125
271.0978088 46733.5625
271.1699829 60805.2578125
273.1123657 37039.515625
273.149231 283447.84375
275.1289978 79268.125
275.1641541 19962.193359375
287.1290894 41581.25390625
287.1647034 78626.1953125
288.1367188 24673.65625
289.1436462 52752.3203125
290.1521606 555503.4375
297.1494446 155717.484375
300.1367798 52924.03515625
301.1442566 326661.46875
302.1521301 45402.53515625
303.1436157 24624.919921875
303.1598206 1202712.75
303.1826477 34571.1953125
315.1597595 10180712
315.2332153 79045.75
318.9302673 20759.462890625
329.1767578 23417.15625
329.2121887 27885.3984375
330.2192078 71811.390625
343.1912537 549680.4375
357.2068787 164781.765625
358.2146606 1201109.125
359.2228088 36803.84765625
383.2953796 370005.25
427.2082825 87253.6640625
427.2262573 60127.84765625
427.2846069 12643254
427.3600159 74425.3359375
428.2903137 24303.41796875

NAME: Hexahumulone
msLevel: MS2
RETENTIONTIME: 19.2979666666667
centroided: TRUE
PRECURSORMZ: 389.2327
precursorCharge: 1
TITLE: msLevel 2; retentionTime 1157.878; scanNum NA; scanIndex 0; precMz 389.2327; precCharge 1
SMILES: CC(C)CCCC(=O)C1=C(C(=C(C(CC=C(C)C)(C1=O)O)O)CC=C(C)C)O
FORMULA: C23H34O5
Num Peaks: 55
40.01259613 2905.6755371094
40.3348999 2208.5373535156
43.24855804 6483.5380859375
44.80999374 2072.2827148438
45.79756165 2181.3073730469
46.114151 3114.1345214844
48.79793549 2593.8249511719
51.66380692 2613.1635742188
63.89180756 2258.1655273438
69.05755615 2401.7802734375
97.4068222 2598.4626464844
104.1279907 2841.1037597656
105.2087097 2284.6428222656
123.0090027 3139.4748535156
123.5095367 2710.7734375
125.0605545 3320.15234375
146.4488068 2376.1901855469
151.0041046 2789.298828125
153.0924225 3412.3803710938
165.0190125 6716.564453125
166.6086731 2370.4602050781
168.006012 5552.2368164063
170.3475952 2684.0112304688
179.072464 2617.0512695313
193.0140839 7528.611328125
207.0301666 3158.3676757813
207.0659332 4008.0131835938
207.1027222 17129.32421875
208.1105194 6039.9907226563
215.9110413 2293.2541503906
221.0810242 3828.6313476563
226.6742554 3071.3544921875
235.0613861 3203.7775878906
235.09729 44325.09375
236.0688324 11315.6884765625
237.1130371 23633.14453125
246.3422699 2750.6228027344
249.0960388 3251.0729980469
249.1002502 2228.9475097656
249.1128998 113237.171875
250.8796082 2739.1555175781
252.1003113 15524.6689453125
263.0923462 6704.6616210938
265.1078796 26272.1640625
277.1079712 150938.5
277.1439209 13534.0380859375
291.1598511 5300.8950195313
305.1391602 10197.818359375
305.450531 3044.4816894531
305.962616 2857.5119628906
320.1627502 510997.875
368.8258362 2873.4660644531
371.2210388 5500.6611328125
389.2005005 5117.833984375
389.2330933 149358.125

NAME: dihydroadhexahumulone
msLevel: MS2
RETENTIONTIME: 19.5128666666667
centroided: TRUE
PRECURSORMZ: 391.2485
precursorCharge: 1
TITLE: msLevel 2; retentionTime 1170.772; scanNum NA; scanIndex 0; precMz 391.2485; precCharge 1
SMILES: CCCCC(C)C(=O)C1=C(C(=C(C(CC=C(C)C)(C1=O)O)O)CCC(C)C)O
FORMULA: C23H36O5
Num Peaks: 23
51.50079727 2116.5952148438
52.54883957 2437.0520019531
69.78595734 2505.6364746094
81.54592133 2326.3051757813
97.34583282 2302.9191894531
99.0796814 2093.48828125
125.2062607 2615.5720214844
186.8008881 2554.1096191406
190.3116913 2434.7287597656
191.5935211 2195.4274902344
237.1126556 18692.705078125
251.128418 5828.3491210938
265.1080627 21950.97265625
266.1154785 3184.8818359375
279.1237793 9692.953125
311.9769897 2596.4243164063
322.1784668 134603.90625
322.203064 4213.8012695313
338.7018738 2542.1274414063
364.7731323 2922.7517089844
391.2171936 5740.9418945313
391.2484436 50079.05859375
391.2796936 4529.1201171875

NAME: dihydrohexahumulone
msLevel: MS2
RETENTIONTIME: 19.7002
centroided: TRUE
PRECURSORMZ: 391.2485
precursorCharge: 1
TITLE: msLevel 2; retentionTime 1182.012; scanNum NA; scanIndex 0; precMz 391.2485; precCharge 1
SMILES: CC(C)CCCC(=O)C1=C(C(=C(C(CC=C(C)C)(C1=O)O)O)CCC(C)C)O
FORMULA: C23H36O5
Num Peaks: 28
49.98966217 2235.9750976563
64.60494995 2421.3803710938
67.98770905 2313.7783203125
79.57091522 2259.525390625
91.88219452 2343.7951660156
93.33959961 2523.0461425781
102.7283325 2453.9016113281
110.4123535 2803.2946777344
126.9781952 2267.2373046875
129.7425079 2435.9594726563
151.6022186 2233.5153808594
166.7937622 2524.7839355469
186.6768036 2294.7038574219
209.0815125 3653.8908691406
211.0449677 2173.7604980469
226.6672363 4855.9140625
237.0763855 3683.4479980469
237.1134491 20348.275390625
249.9650269 2418.1994628906
251.1290436 8040.0341796875
265.1081543 19107.787109375
279.1237183 12504.859375
322.1538696 3283.7770996094
322.1599731 2244.3151855469
322.1782837 112500.046875
336.412384 2216.5534667969
391.2155151 5158.2592773438
391.2486267 44859

NAME: Hexalupulone
msLevel: MS2
RETENTIONTIME: 19.73225
centroided: TRUE
PRECURSORMZ: 441.3003
precursorCharge: 1
TITLE: msLevel 2; retentionTime 1183.935; scanNum NA; scanIndex 0; precMz 441.3003; precCharge 1
SMILES: CC(C)CCCC(=O)C1=C(C(=C(C(CC=C(C)C)(CC=C(C)C)C1=O)O)CC=C(C)C)O
FORMULA: C28H42O4
Num Peaks: 55
42.59756088 2864.5461425781
43.42053986 2177.1828613281
44.4396286 2339.9020996094
45.10529327 2331.95703125
45.55466461 2386.0173339844
49.03399277 18580.56640625
52.72128296 2568.0083007813
62.65774536 2783.4602050781
64.84075928 3100.4487304688
66.2209549 2413.6315917969
81.5880127 2322.1298828125
93.0537262 2241.3142089844
129.4944611 2452.7338867188
152.0114746 5034.1162109375
153.0919647 7809.8227539063
173.0968933 3578.0322265625
178.6198273 3124.5417480469
191.0345154 2572.6389160156
204.0430145 2891.9794921875
205.0869751 4406.7514648438
217.0507202 4663.7666015625
217.0866394 9734.232421875
226.6686707 3999.4467773438
226.680481 4186.8110351563
236.1055298 14366.453125
243.0656128 5387.3071289063
245.0814819 4339.7065429688
247.0980377 3242.7783203125
249.1125641 13535.4013671875
252.7336426 2418.7214355469
257.0809937 2947.4997558594
261.1130066 71561.25
273.1131897 3094.0012207031
285.1861267 4131.4702148438
287.1280212 4349.9536132813
287.1652527 10202.984375
289.1454468 3091.9096679688
303.1620178 3160.2136230469
304.1677246 20035.296875
311.1651611 5965.8842773438
313.2162476 2742.5437011719
315.1598206 27584.556640625
317.1755066 40561.890625
321.9158325 2642.1711425781
329.1755676 373481.8125
329.2444153 3502.7265625
343.1908569 2637.3759765625
344.2344055 3993.1416015625
357.2072144 22490.015625
371.2232971 5118.1108398438
372.2304993 34549.47265625
397.3102722 8613.85546875
414.4595337 2390.1633300781
441.3005371 480459.65625
468.945282 2538.3671875

NAME: LUP29
msLevel: MS2
RETENTIONTIME: 19.9109
centroided: TRUE
PRECURSORMZ: 467.3162
precursorCharge: 1
TITLE: msLevel 2; retentionTime 1194.654; scanNum NA; scanIndex 0; precMz 467.3162; precCharge 1
FORMULA: C30H44O4
Num Peaks: 40
42.3021698 2262.7453613281
43.1958847 2558.5029296875
51.92445374 5157.5249023438
52.21656036 2309.0607910156
52.88705063 2339.2766113281
66.12366486 2466.921875
66.93859863 2729.7253417969
67.50066376 3047.5988769531
68.62045288 2311.09765625
82.40813446 2408.1259765625
84.43249512 2590.6770019531
94.17497253 2567.1730957031
94.82299042 2960.8002929688
95.52047729 2318.9020996094
111.0449677 11316.2080078125
131.9000702 2365.5180664063
148.4675751 2623.0563964844
152.0114746 3310.3508300781
173.0840759 2747.91796875
194.0576782 5733.431640625
207.0653839 4619.0092773438
219.0660095 28980.78125
226.6682434 3374.1203613281
259.1344299 3334.5280761719
261.1128845 7438.5649414063
262.1205444 8779.0458984375
266.821167 2542.0627441406
273.1130981 10959.681640625
274.8221436 2635.8430175781
275.1285706 13642.3681640625
285.1850891 7691.6401367188
287.1285706 112582.3828125
297.121521 2773.4216308594
315.1598206 6013.3247070313
329.1755981 115479.484375
329.1953735 1850.2644042969
330.1835938 10571.138671875
355.1908569 7739.9995117188
467.3161011 179924.609375
490.2825012 3123.6147460938

NAME: Adhexalupulone
msLevel: MS2
RETENTIONTIME: 19.9265666666667
centroided: TRUE
PRECURSORMZ: 441.3005
precursorCharge: 1
TITLE: msLevel 2; retentionTime 1195.594; scanNum NA; scanIndex 0; precMz 441.3005; precCharge 1
SMILES: CCCCC(C)C(=O)C1=C(C(=C(C(CC=C(C)C)(CC=C(C)C)C1=O)O)CC=C(C)C)O
FORMULA: C28H42O4
Num Peaks: 50
40.13072205 2712.1279296875
40.82447052 2632.3374023438
41.89719772 2538.3803710938
42.0574913 2310.099609375
44.80516052 2285.6916503906
45.19184875 2421.2329101563
45.57522964 2556.412109375
46.2783699 2327.4230957031
49.03390884 15545.255859375
53.68530655 2336.61328125
57.94520569 2717.9582519531
59.08802795 2574.2875976563
62.56827545 2945.7409667969
67.48300934 2612.81640625
84.76287842 2325.1313476563
89.19142914 2633.818359375
92.19010162 2500.8156738281
103.7921677 2490.4833984375
125.4400635 2349.9877929688
127.2632065 2587.5642089844
152.0115662 4663.2900390625
153.0918427 4343.4731445313
170.5471649 2819.8967285156
171.1657257 2546.2001953125
186.322937 2702.734375
198.8384247 2381.4812011719
217.0863953 11523.1142578125
226.6694031 3405.3161621094
236.1049347 6659.7856445313
243.0661621 3804.6115722656
245.0809021 3085.0549316406
249.1130066 6064.1850585938
261.1128235 36781.703125
268.5993652 2864.654296875
274.093689 2260.6203613281
274.1189575 2550.5935058594
287.1652527 7734.3686523438
289.1433411 2947.9450683594
301.1804504 2859.5063476563
304.1674194 10967.36328125
311.1640015 3538.1069335938
315.15979 9338.3974609375
317.175354 26995.4453125
329.1755676 246069.1875
357.2067261 12899.810546875
371.2209778 6915.8061523438
372.2301636 27687.30078125
383.6667786 2463.7646484375
397.3104858 8903.4111328125
441.3004761 373760.03125

NAME: LUP30
msLevel: MS2
RETENTIONTIME: 20.4653
centroided: TRUE
PRECURSORMZ: 481.3317
precursorCharge: 1
TITLE: msLevel 2; retentionTime 1227.918; scanNum NA; scanIndex 0; precMz 481.3317; precCharge 1
FORMULA: C24H50O9
Num Peaks: 42
40.37026978 2735.1220703125
44.71510315 2369.2531738281
46.89797592 2505.67578125
47.34771729 2359.0786132813
48.55486298 2346.1030273438
53.48192215 14320.7802734375
54.83059692 2655.8232421875
68.29299164 2348.5668945313
81.66695404 3192.2082519531
95.06058502 2539.5139160156
101.8669434 2435.1779785156
105.6199112 2228.7561035156
109.0655823 2726.3110351563
111.4293976 2430.4111328125
121.5048218 2695.7641601563
125.0606537 7234.5234375
148.8413696 2906.232421875
152.0114288 6252.7119140625
208.0738373 12944.369140625
217.0867767 3129.3894042969
221.0814819 10517.5810546875
231.1385345 3007.7834472656
233.081543 46531.6015625
245.0811768 4758.3989257813
259.1340942 6950.8706054688
275.1286621 7748.599609375
276.1366272 19662.201171875
285.113678 3902.5671386719
287.128418 14494.0546875
289.1439514 22002.533203125
299.2011719 10373.5478515625
301.122345 6171.1997070313
301.1443787 174796.5
312.7660217 2479.6237792969
329.1752014 15740.962890625
343.1912842 171289.1875
343.2130127 2635.5385742188
344.1991577 18989.15234375
369.2064514 16022.3974609375
380.1950989 2928.2961425781
437.3421936 8650.724609375
481.3318787 359553

NAME: 4'-Hydroxyallocohumulinone
msLevel: MS2
RETENTIONTIME: 9.099685
centroided: TRUE
PRECURSORMZ: 379.1755
precursorCharge: 1
TITLE: msLevel 2; retentionTime 545.9811; scanNum NA; scanIndex 0; precMz 379.1755; precCharge 1
SMILES: CC(=CC[C@@]1(C(=O)C(=C([C@@]1(C(=O)/C=C/C(C)(C)O)O)O)C(=O)C(C)C)O)C
FORMULA: C20H28O7
Num Peaks: 135
42.13106155 28159.447265625
46.63976669 4556.1630859375
48.66630173 4516.0444335938
54.57704163 4910.9887695313
56.58558273 5334.76171875
57.0344696 24488.572265625
61.73873901 5252.5908203125
69.03470612 6108.3188476563
70.41448975 5928.1235351563
71.0501709 14195.572265625
81.07090759 7864.1899414063
82.00595093 15499.76953125
83.01365662 53837.02734375
85.02941895 183090.21875
85.06578827 353297.90625
87.04502106 89386.34375
95.01374054 9226.75390625
95.05013275 76748.6640625
96.02159882 37445.296875
97.02934265 23934.248046875
97.06574249 37949.50390625
98.00109863 5655.9877929688
101.0606232 7111.185546875
107.0501175 19064.376953125
108.021637 5872.943359375
109.0294189 11759.8037109375
109.0656967 38683.7578125
110.0007858 42894.50390625
110.0371628 11983.14453125
111.0086517 12470.1083984375
111.0400467 7720.2529296875
111.0450439 342590.84375
111.0500946 10422.9326171875
111.0813904 29652.85546875
113.024231 19930.921875
113.0606689 34089.8046875
115.0765305 5693.4326171875
121.065979 27367.5546875
121.1021347 7831.8256835938
122.0373917 6579.8393554688
123.0449829 7434.6059570313
124.052681 28843.279296875
125.0241928 34650.0859375
125.0606308 146734.640625
127.0762711 12746.9326171875
129.0556793 33440.2421875
133.0658264 10414.578125
135.0452423 6902.45703125
135.0813446 8711.7548828125
136.0528107 14676.9853515625
137.0241547 7817.177734375
137.06073 41382.65234375
137.0970001 11235.1650390625
139.0397339 27493.763671875
139.0762787 275082.78125
139.1127472 15592.4150390625
140.0477448 57879.08203125
141.0555573 226308
143.0711823 81249.4140625
147.0814362 44687.55859375
149.0606689 11081.7978515625
150.0681915 34327.73046875
151.0762329 20807.517578125
152.0478668 8963.86328125
153.0554657 22577.033203125
155.0709076 7809.5615234375
157.050293 15905.8291015625
161.0605316 6319.3994140625
163.0032959 8361.7314453125
163.1126404 5794.607421875
164.2631073 6137.3515625
165.046524 8236.3857421875
165.055542 264517.71875
165.0917969 118560.015625
166.0639648 6996.3481445313
167.0711212 21655.451171875
167.1075287 130463.3828125
168.0426788 12389.2685546875
169.0501709 18019.177734375
171.0658417 6106.4970703125
175.0767059 6166.8745117188
177.1280212 12127.705078125
178.0635223 13605.4736328125
179.071228 31508.2578125
179.1442413 5556.041015625
181.0502625 12616.3154296875
181.1232452 26343.912109375
191.0714874 6191.0278320313
191.1074066 27741.587890625
192.0787811 5748.4682617188
193.1232758 10643.2080078125
195.0661469 19549.251953125
195.1386261 6578.8608398438
196.0362396 10360.029296875
197.0455017 10650.2373046875
198.0529785 6984.4248046875
205.0879364 7226.0131835938
205.1231689 191837.484375
206.0585785 10924.4638671875
207.0655518 19049.955078125
209.1180725 562834.1875
215.0715485 6160.1650390625
219.1026001 10748.166015625
221.1181641 22981.40234375
223.0616455 11424.13671875
223.1338501 187539.765625
225.1133575 28592.28125
226.6646271 7457.119140625
226.677124 9081.4228515625
231.1021576 24421.806640625
233.0819092 21852.921875
235.0972137 78054.3046875
237.1127014 78915.8125
239.1286011 18733.701171875
247.0969238 8620.6533203125
247.1339111 21912.947265625
249.1129761 329070.90625
249.1297607 11560.3583984375
252.920517 5033.337890625
255.1228027 9454.0263671875
259.1335449 14371.6142578125
265.1077576 71421.6796875
267.1235657 43508.75
273.1856689 5463.5405273438
283.1195068 9111.64453125
291.1236572 94537.0859375
293.1029053 11593.603515625
296.3198242 5928.7055664063
300.9951477 4873.3388671875
310.1053467 15818.453125
317.1754761 22431.701171875
320.4436951 6188.7890625
335.1861572 106852.96875
361.1652527 58396.7265625
379.1759033 761250.3125

NAME: Xanthohumol B
msLevel: MS2
RETENTIONTIME: 9.14834
centroided: TRUE
PRECURSORMZ: 369.1339
precursorCharge: 1
TITLE: msLevel 2; retentionTime 548.9004; scanNum NA; scanIndex 0; precMz 369.1339; precCharge 1
SMILES: CC1(C)C(Cc2c(cc(c(C(=O)/C=C/c3ccc(cc3)O)c2O)OC)O1)O
FORMULA: C21H22O6
Num Peaks: 45
41.01529694 20292.24609375
52.471138 2324.8974609375
68.21611786 2400.4084472656
85.5635376 2655.5319824219
91.01846313 2988.4050292969
117.0345612 5376.2314453125
119.050087 298902.125
122.0900574 2433.66015625
123.9529877 3108.8051757813
135.0084229 3777.1772460938
136.987915 4262.7998046875
137.8887177 2433.9755859375
145.0293579 44017.984375
148.0160522 4153.2666015625
151.0402679 3649.1076660156
159.0449677 3591.1901855469
163.0036469 8856.3056640625
165.0555725 4352.0024414063
175.0030975 3339.0590820313
177.0192566 4918.6689453125
185.0609589 3092.3901367188
190.0267639 3479.4311523438
191.0351257 10999.044921875
197.7000275 2762.27734375
205.086853 5318.6845703125
212.0476379 3454.2580566406
223.0367432 2781.0358886719
223.0971375 3205.9704589844
226.0636749 4255.9536132813
231.0660248 17720.640625
241.2581635 2759.08203125
249.0763702 8863.7724609375
254.0580444 10264.0810546875
255.0666199 5924.037109375
265.050293 4175.2822265625
281.045929 3886.19140625
283.0608215 4580.9965820313
297.0764771 43393.75
310.842041 2392.1467285156
311.0925598 27374.865234375
319.0977783 3791.9604492188
327.1230164 3858.28125
337.107605 3196.2895507813
351.1242065 14849.8427734375
369.1340027 492754.125

NAME: Xanthohumol I
msLevel: MS2
RETENTIONTIME: 9.355335
centroided: TRUE
PRECURSORMZ: 369.1339
precursorCharge: 1
TITLE: msLevel 2; retentionTime 561.3201; scanNum NA; scanIndex 0; precMz 369.1339; precCharge 1
SMILES: CC(C)(C1Cc2c(cc(c(C(=O)/C=C/c3ccc(cc3)O)c2O1)OC)O)O
FORMULA: C21H22O6
Num Peaks: 26
41.01521683 5234.4931640625
42.68325424 2211.6748046875
46.99235153 2422.3547363281
48.0921402 2669.8693847656
58.66941071 3083.3093261719
61.87818909 2312.0620117188
67.84319305 2481.5212402344
69.57888031 2192.3051757813
88.0734787 2339.2983398438
102.8364792 2420.0622558594
119.0501175 71788.359375
129.6107025 2294.4555664063
145.0291138 6424.1440429688
148.0162201 2943.5112304688
165.0559082 3058.4450683594
175.0038452 4226.5473632813
181.0856171 2271.0949707031
191.0345764 8007.640625
202.3806152 2216.8032226563
249.0766907 3659.14453125
260.6013794 2429.4013671875
282.6139832 2401.6220703125
295.0608521 6996.8032226563
311.09198 6733.98828125
311.112793 2623.9765625
369.1340637 157050.9375

NAME: 4'-Hydroxyallohumulinone
msLevel: MS2
RETENTIONTIME: 9.75138833333333
centroided: TRUE
PRECURSORMZ: 393.191
precursorCharge: 1
TITLE: msLevel 2; retentionTime 585.0833; scanNum NA; scanIndex 0; precMz 393.191; precCharge 1
SMILES: CC(=CC[C@@]1(C(=O)C(=C([C@@]1(C(=O)/C=C/C(C)(C)O)O)O)C(=O)CC(C)C)O)C
FORMULA: C21H30O7
Num Peaks: 138
43.01903534 32588.482421875
43.6883812 201239.84375
45.9206543 32502.533203125
49.02183533 31053.2890625
51.12940979 35219.1796875
52.36758423 36309.5546875
57.03447342 395564.3125
58.12563705 40954.9296875
59.01371765 44262.9453125
62.41631317 33083.4140625
69.03460693 44016
71.05027771 81324.8515625
71.4693222 37436.046875
76.38378906 31278.90625
82.00584412 59051.5859375
83.0138092 335864.90625
83.05004883 48107.07421875
85.02939606 1289303
86.15262604 34077.8671875
90.78603363 36450.3359375
92.32382965 36904.953125
93.03443909 43120.46484375
93.07084656 75230.28125
95.05013275 656557.4375
95.4013443 33909.8515625
96.02146149 313298.5
97.0293808 146049.921875
97.0657196 230556.890625
98.00077057 164099.75
99.08140564 1182823.375
101.0606155 411100.96875
107.050148 89004.4140625
108.0215988 59968.02734375
109.0294724 97802.6484375
109.0657883 152468.9375
110.0008392 278690
110.0373688 85276.7890625
111.0086517 141174.5625
111.0449066 118105.7421875
111.0812836 340534.125
113.0242615 118597.4375
113.0606537 108557.859375
115.0761642 83796.828125
121.0657578 352913.46875
121.1022263 39549.11328125
122.037056 80932.0859375
123.0814133 202150.265625
124.0162964 42003.64453125
124.0527649 79581.6015625
125.0606537 3170458.25
127.0764465 123364.8984375
129.0555573 180195.265625
136.01651 58905.4375
136.0531616 35063.98828125
137.0604706 327898.34375
137.0904236 47825.109375
137.0970612 129472.4453125
138.0682526 40279.14453125
139.0402832 35306.34375
139.0762634 4553032
141.055542 1521433.125
143.0712433 577889.875
147.0812836 271862.5625
147.6710663 38062.2421875
149.0600586 43638.95703125
150.0316315 41102.0625
150.068512 187513.8125
151.0762787 142455.359375
153.0557098 80934.53125
153.1280365 44834.0703125
153.9463806 36005.8984375
154.0631104 124226.5625
155.0711517 94378.3671875
155.8660889 36071.01171875
157.0503235 75898.0078125
163.0394897 34245.1640625
163.112793 47081.24609375
165.0555267 1567023.125
165.0918579 871059.1875
166.0626068 39681.37890625
167.0711823 215990.453125
169.0505829 87862.8671875
177.0553741 53149.578125
177.1284637 75272.7890625
179.0712128 149905.328125
179.1434937 50781.65234375
181.0868225 99427.390625
181.1235046 324371.21875
182.0583344 78779.1796875
183.0660553 74400.7421875
191.0713043 63833.359375
192.0787201 63703.828125
192.1717377 38990.3046875
193.0867767 70405.3359375
195.0663452 164867.5
195.1009216 38297.13671875
195.1385498 74008.390625
197.7034912 36621.08984375
198.0535278 62953.9765625
201.0552979 38702.8515625
205.0866089 51342.2578125
205.1231079 1294664.125
205.1353302 61833.98046875
209.0458527 42147.4140625
210.0525818 90619.671875
211.0608521 141960.59375
216.5807343 37719.48828125
219.1383667 34631.63671875
220.0739594 74438.375
221.081665 196531.5625
223.1337433 4348983
226.6733093 72928.9453125
229.0860596 54007.171875
233.0805359 49630.68359375
233.1177368 64882.953125
235.1335144 122260.5859375
237.0772858 57777.984375
239.1285248 260414.578125
245.1183777 220686.828125
247.1337585 109278.3125
247.1698608 69144.3046875
249.1129608 483487.90625
251.1286316 438999.75
261.1138306 83130.5859375
263.1286621 2149073.75
265.0713806 90946.7578125
267.1234436 374775.375
269.1398315 49613.125
273.1490479 95181.296875
279.1234436 438275.59375
291.1235657 400474.46875
297.1334534 78941.4765625
309.1341858 105690.453125
324.1208496 131132.265625
331.1913147 140870.359375
349.2018433 988211.375
375.1812439 390427.46875
393.1915588 5068698

NAME: hydroxycohulupone
msLevel: MS2
RETENTIONTIME: 9.76113
centroided: TRUE
PRECURSORMZ: 333.1704
precursorCharge: 1
TITLE: msLevel 2; retentionTime 585.6678; scanNum NA; scanIndex 0; precMz 333.1704; precCharge 1
SMILES: CC(=CCC1(CC=C(C)C)C(=O)C(=O)C(C(=O)C(C)C)(C1=O)O)C
FORMULA: C19H26O5
Num Peaks: 40
56.89434814 2260.822265625
71.00906372 2585.6765136719
76.62543488 2185.4750976563
78.20445251 2020.0823974609
79.17123413 2355.0380859375
84.22390747 2411.64453125
100.4482498 2164.2478027344
106.3290405 2148.0056152344
111.0450592 28205.31640625
149.0604553 15064.748046875
151.3268738 2231.0322265625
152.047699 16466.044921875
166.0632324 2725.1823730469
177.055191 4421.5717773438
177.0915527 3999.9738769531
179.0715637 11408.9970703125
180.0426178 10054.505859375
181.0503693 12659.5478515625
191.0711517 2784.1499023438
205.0502472 17426.630859375
205.0865631 3947.9929199219
209.9176331 2644.6037597656
217.8920593 2536.888671875
219.1027374 12643.67578125
220.1103058 3929.2429199219
221.0452118 59673.76171875
221.0817871 13764.669921875
226.6649017 2716.5222167969
226.6771545 4814.9565429688
233.0819855 8188.1665039063
235.0969696 3266.0695800781
236.1048889 19667.79296875
247.0969543 29401.279296875
248.1051331 8158.9306640625
249.0766449 49600.9765625
264.1000366 78230.859375
264.117981 3687.2990722656
267.2120056 2297.7485351563
288.2200623 2565.2409667969
333.1705322 238027.0625

NAME: 4'-hydroxydihydrocohumulinone
msLevel: MS2
RETENTIONTIME: 9.81659166666667
centroided: TRUE
PRECURSORMZ: 381.1914
precursorCharge: 1
TITLE: msLevel 2; retentionTime 588.9955; scanNum NA; scanIndex 0; precMz 381.1914; precCharge 1
SMILES: CC(=CC[C@@]1(C(=O)C(=C([C@@]1(C(=O)CCC(C)(C)O)O)O)C(=O)C(C)C)O)C
FORMULA: C20H30O7
Num Peaks: 40
46.40604019 2367.0148925781
49.20361328 2480.6696777344
52.44451141 2093.0935058594
53.14283752 2496.3806152344
64.2335434 2334.3530273438
65.51462555 2142.0864257813
68.75322723 2370.9514160156
81.16629791 2182.6264648438
83.01394653 2884.5229492188
85.02950287 4393.2495117188
85.06599426 2859.2976074219
87.04497528 4363.7563476563
95.05010986 3616.1184082031
101.4864578 2399.6630859375
108.3788071 2500.6447753906
111.0450592 12105.61328125
121.4401245 2586.265625
125.060463 3236.9582519531
129.0921021 2853.5922851563
137.5578766 2512.466796875
141.0921173 23542.341796875
143.0713196 21052.169921875
167.0713654 8517.849609375
169.1233673 5523.07421875
207.138855 10364.6337890625
211.1337585 36767.3046875
211.4059906 2445.8977050781
224.374054 2633.1391601563
225.149826 8176.6943359375
226.6709747 3060.1437988281
232.6809235 2153.2709960938
239.1292877 3536.9047851563
251.1286316 8905.546875
252.4749298 2385.5908203125
293.1381226 2382.9265136719
337.2026978 4304.7915039063
342.8326721 2461.0161132813
351.8716431 2426.4309082031
381.1920776 35961.9609375
391.8514709 2396.9267578125

NAME: 4'-Hydroxyalloadhumulinone
msLevel: MS2
RETENTIONTIME: 9.88703666666667
centroided: TRUE
PRECURSORMZ: 393.1911
precursorCharge: 1
TITLE: msLevel 2; retentionTime 593.2222; scanNum NA; scanIndex 0; precMz 393.1911; precCharge 1
SMILES: CC[C@H](C)C(=O)C1=C([C@](C(=O)/C=C/C(C)(C)O)([C@](CC=C(C)C)(C1=O)O)O)O
FORMULA: C21H30O7
Num Peaks: 162
43.6884346 43604.82421875
45.00391006 6669.5512695313
51.73361969 6599.5581054688
53.90061569 6254.8002929688
55.01901245 8164.9814453125
57.03448868 46831.6953125
59.0137558 8739.7138671875
69.03436279 9968.7509765625
71.01377106 11766.46484375
71.05018616 89759.171875
72.99290466 8538.23046875
79.05526733 8719.53125
80.02650452 7440.337890625
81.03442383 8019.6455078125
81.07079315 10908.2705078125
82.006073 10429.7978515625
83.01380157 62213.59375
85.02944183 230925.265625
85.06565857 7086.630859375
90.7662735 6290.0327148438
90.99480438 6605.193359375
91.80661011 5719.556640625
93.07086945 15268.171875
95.01402283 12241.7294921875
95.05017853 119958.65625
96.02161407 56054.00390625
96.2118988 5617.0415039063
97.02935791 24488.3515625
97.0657959 58354.9375
98.00086212 27632.58203125
99.07818604 6890.3549804688
99.0814209 476555.21875
101.0606842 122324.9296875
102.7584229 5862.1040039063
105.0710526 7943.2514648438
107.0502167 28251.130859375
108.0218201 11906.8134765625
109.0293732 24772.501953125
109.0658798 25955.533203125
110.0007629 60884.7890625
110.0371475 22120.291015625
111.0085144 16077.048828125
111.0450058 29718.552734375
111.0813217 38278.3828125
113.024353 26143.818359375
113.0605698 25089.7109375
115.0763855 15136.216796875
121.0657654 38542.95703125
121.1020126 11889.0185546875
122.0374451 16694.591796875
123.0451126 15160.287109375
123.0812759 38978.8359375
124.0529633 16764.75390625
125.0245361 35684.76953125
125.0560074 11559.6962890625
125.0606613 780874
127.0761948 27613.494140625
129.055542 53840.70703125
133.0658722 8710.9033203125
136.0162201 9172.7919921875
136.0527954 23411.806640625
136.4576874 6624.728515625
137.0244904 10995.7451171875
137.0606079 73984.875
137.09729 18005.39453125
138.0683136 12083.431640625
139.0400543 19125.71484375
139.0709381 7297.201171875
139.0762939 539124.8125
140.0113831 6700.7490234375
141.0555573 378826.4375
141.0920715 7923.4580078125
143.0713043 129589.8671875
144.0579376 7412.6484375
147.0813904 64418.1015625
149.0076904 6749.1235351563
149.0602417 11888.40234375
150.068512 48603.3125
151.0763092 19333.146484375
153.0557861 24511.1484375
153.0923309 15040.1611328125
153.1285858 21686.5546875
154.0634308 59577.47265625
155.0712433 14819.5595703125
157.0505219 17605.869140625
163.0038147 16874.9140625
163.0400085 10837.8056640625
163.0764465 13847.4892578125
163.1123352 6485.6616210938
164.0112915 8008.142578125
165.0466309 12806.87109375
165.055542 317315.4375
165.0918579 164314.65625
166.0635834 10940.509765625
167.0714569 47884.7734375
169.0506897 7775.0517578125
170.0586853 7290.0649414063
177.0561676 9837.8935546875
177.0921173 5905.9462890625
177.1285248 8988.3701171875
179.0713196 48620.0390625
181.0503082 7145.4638671875
181.0868683 10880.5537109375
181.1232147 139162.75
182.0583649 10849.4912109375
183.0661469 18812.958984375
186.0440063 7256.0053710938
187.1122589 9905.4375
190.0998993 8181.6108398438
191.0708771 16026.4716796875
192.0791321 15734.900390625
193.0867004 16958.810546875
195.0663147 41952.97265625
195.138855 31650.513671875
198.0537567 9140.1220703125
205.0866394 12760.48046875
205.1232605 307893.40625
208.1108856 6714.8745117188
209.0458984 9256.6826171875
210.0530548 19584.916015625
211.0608368 35548.22265625
215.0714417 6815.4370117188
220.0738678 19511.685546875
221.082077 40605.046875
222.126709 9679.6806640625
222.7182312 6948.1616210938
223.1337738 1159680.5
226.6741943 9029.4970703125
233.0817261 20718.607421875
235.0967407 10458.3623046875
235.133728 20131.892578125
237.0767517 11955.923828125
239.1288452 68886.96875
245.1183167 51610.15234375
246.01091 6868.3334960938
247.1340179 10448.43359375
247.1699677 16441.986328125
248.10466 8498.119140625
249.1130981 148065.234375
250.1209717 8960.171875
251.1286774 111717.5234375
261.1121216 14470.4326171875
263.1286926 566713
265.0721436 10811.9580078125
267.1237793 68766.96875
269.1394958 16900.68359375
273.112915 9642.578125
273.1491089 14277.798828125
278.1166077 9708.755859375
279.1237488 120094.8984375
291.1236877 101557.6328125
297.1342773 16239.75390625
307.1189575 13107.0087890625
324.1212158 22973.962890625
331.1911316 25941.283203125
347.1869202 12098.2412109375
349.2019348 155859.953125
375.1816711 95206.0546875
375.2103882 10776.859375
393.1915894 1197489.125
401.3175049 7155.025390625
401.8203125 6024.8999023438

NAME: linear hydroxycohulupone
msLevel: MS2
RETENTIONTIME: 10.065385
centroided: TRUE
PRECURSORMZ: 333.1704
precursorCharge: 1
TITLE: msLevel 2; retentionTime 603.9231; scanNum NA; scanIndex 0; precMz 333.1704; precCharge 1
SMILES: CCCC(=O)C1(C(=O)C(=O)C(CC=C(C)C)(CC=C(C)C)C1=O)O
FORMULA: C19H26O5
Num Peaks: 28
40.54547119 2147.9487304688
40.56468964 2162.662109375
40.94433594 2057.9765625
56.23957443 2999.7841796875
60.62785721 2071.17578125
61.3999939 2174.4736328125
67.33342743 2421.2150878906
70.05556488 2211.5063476563
101.4811096 2410.5986328125
111.0452576 3596.3420410156
122.8481064 2353.8239746094
152.0478821 11487.001953125
180.0429535 9124.34765625
181.050293 14144.830078125
203.3819275 2596.5158691406
205.0507355 7117.9868164063
205.0869751 5275.3588867188
219.1031647 2723.13671875
224.9775085 2245.5495605469
233.0815582 5163.029296875
233.4882202 2118.9860839844
236.0685577 3230.4562988281
247.0982361 8753.8125
248.1056671 10657.736328125
264.1016541 3119.2983398438
320.4137268 2192.1176757813
332.8342896 2248.1767578125
333.1707153 70764.078125

NAME: 4'-hydroxydihydrohumulinone
msLevel: MS2
RETENTIONTIME: 10.49312
centroided: TRUE
PRECURSORMZ: 395.2067
precursorCharge: 1
TITLE: msLevel 2; retentionTime 629.5872; scanNum NA; scanIndex 0; precMz 395.2067; precCharge 1
SMILES: CC(=CC[C@@]1(C(=O)C(=C([C@@]1(C(=O)CCC(C)(C)O)O)O)C(=O)CC(C)C)O)C
FORMULA: C21H32O7
Num Peaks: 49
43.91239548 4030.3605957031
57.03456116 3313.65625
83.0138092 4939.3500976563
85.02931976 11627.9638671875
95.05028534 6395.61328125
97.06575775 4723.0830078125
98.0375824 4608.8271484375
99.08152771 9230.7265625
101.0606689 3534.5219726563
111.0451736 4349.6088867188
115.0762253 3189.6560058594
125.0606155 39733.08203125
129.0557861 2995.4426269531
129.0920563 5049.279296875
139.0755005 2533.2419433594
139.9865723 2547.3078613281
141.0919342 85645.8828125
141.0986633 4696.3168945313
143.0711517 35018.390625
149.0970306 2712.0407714844
150.068512 4440.5615234375
167.0712128 23621.6171875
167.1078949 4536.0322265625
181.0868988 5138.279296875
183.1026001 3075.8850097656
183.1393433 4284.1645507813
195.0660858 5407.4248046875
197.1538849 3017.4304199219
207.066452 2472.3276367188
207.1388245 29377.794921875
207.3104248 2621.8986816406
221.0823822 2663.7783203125
225.1493683 72425.1015625
226.6697998 2575.0451660156
237.1132202 4450.494140625
239.1287384 4750.0478515625
248.0041351 2481.6003417969
251.1295776 3319.8386230469
253.1442413 7933.1298828125
265.1441345 28609.486328125
269.1389771 3445.9379882813
293.1393433 6698.7934570313
307.116272 2502.7954101563
323.5621338 2385.2561035156
333.2066345 3680.0522460938
351.2177124 14896.865234375
377.1971436 6442.5649414063
395.1745605 2050.6157226563
395.2072449 76756.84375

NAME: hydroxyadhulupone
msLevel: MS2
RETENTIONTIME: 10.5199333333333
centroided: TRUE
PRECURSORMZ: 347.186
precursorCharge: 1
TITLE: msLevel 2; retentionTime 631.196; scanNum NA; scanIndex 0; precMz 347.186; precCharge 1
SMILES: CCC(C)C(=O)C1(C(=O)C(=O)C(CC=C(C)C)(CC=C(C)C)C1=O)O
FORMULA: C20H28O5
Num Peaks: 28
65.22027588 2352.5466308594
74.60961914 3178.3171386719
82.08395386 2297.5119628906
122.691124 2161.3530273438
125.0604935 20865.64453125
132.1405487 2358.0798339844
137.2138672 2303.7607421875
175.0754395 2371.4626464844
179.0351257 3527.1430664063
191.7973938 2276.2312011719
193.050293 2811.5422363281
193.0867615 9510.712890625
194.0580444 6733.1186523438
194.3839264 2243.4645996094
205.0860596 2763.1879882813
219.0661621 14240.6865234375
221.0454559 7627.1586914063
233.1182861 12145.7607421875
235.097229 12913.7021484375
250.1204987 15161.955078125
259.13797 2380.8405761719
261.1127319 19745.357421875
263.0921936 45081.578125
278.1156311 58626.234375
347.1581421 3455.7700195313
347.1860962 154278.9375
347.2138672 4001.4333496094
347.2266846 2903.5458984375

NAME: hydroxyhulupone
msLevel: MS2
RETENTIONTIME: 10.6160666666667
centroided: TRUE
PRECURSORMZ: 347.186
precursorCharge: 1
TITLE: msLevel 2; retentionTime 636.964; scanNum NA; scanIndex 0; precMz 347.186; precCharge 1
SMILES: CC(=CCC1(CC=C(C)C)C(=O)C(=O)C(C(=O)CC(C)C)(C1=O)O)C
FORMULA: C20H28O5
Num Peaks: 19
50.40873718 2161.2109375
53.34348297 2496.7385253906
56.35510635 2287.8295898438
56.59023285 2199.8845214844
60.0760994 2593.4431152344
81.85096741 2243.0876464844
83.48539734 2684.4780273438
109.5355072 2549.84765625
125.0608292 6814.484375
195.0663605 3466.6909179688
219.0667877 4695.0322265625
221.0454712 7423.744140625
235.0972748 2715.9460449219
261.112915 3700.0327148438
263.0929565 8731.9521484375
278.1161499 12017.64453125
333.0603333 2606.1010742188
347.1862183 45683.046875
369.6626282 2272.5002441406

NAME: linear hydroxyhulupone
msLevel: MS2
RETENTIONTIME: 10.7325033333333
centroided: TRUE
PRECURSORMZ: 347.1859
precursorCharge: 1
TITLE: msLevel 2; retentionTime 643.9502; scanNum NA; scanIndex 0; precMz 347.1859; precCharge 1
SMILES: CCCCC(=O)C1(C(=O)C(=O)C(CC=C(C)C)(CC=C(C)C)C1=O)O
FORMULA: C20H28O5
Num Peaks: 35
41.3445015 2135.3779296875
45.3270874 2219.4086914063
48.23662186 2499.2768554688
54.61991882 2312.7827148438
58.92220688 2859.0927734375
67.5890274 2555.6342773438
71.43488312 2518.1979980469
82.00592804 3301.171875
95.75874329 2517.8693847656
117.2672043 2379.2932128906
124.0164566 11871.34765625
125.0607376 12792.49609375
166.0633698 43181.89453125
178.0632172 5459.9975585938
179.0351257 3543.6320800781
180.0792542 2577.4165039063
191.071167 10282.658203125
194.0581818 28129.787109375
195.0660706 50199.78515625
205.0505066 5021.8637695313
219.0659332 19175.037109375
219.1024628 16825.642578125
221.0463562 4751.7060546875
221.0815582 6080.6162109375
233.1179657 14144.671875
234.1260376 8376.7109375
235.0606842 4572.349609375
247.0973053 24272.220703125
261.1128235 26855.384765625
262.120636 33214.8984375
263.0921631 4635.943359375
270.8320923 2607.87109375
278.1156616 14056.240234375
293.7684021 2478.4020996094
347.1861877 260924.296875

NAME: 4'-hydroxydihydroprehumulinone
msLevel: MS2
RETENTIONTIME: 10.9801366666667
centroided: TRUE
PRECURSORMZ: 407.2068
precursorCharge: 1
TITLE: msLevel 2; retentionTime 658.8082; scanNum NA; scanIndex 0; precMz 407.2068; precCharge 1
SMILES: CC(C)CCC(=O)C1=C([C@](C(=O)CCC(C)(C)O)([C@](CC=C(C)C)(C1=O)O)O)O
FORMULA: C22H32O7
Num Peaks: 49
41.51654053 2131.4645996094
44.02530289 2207.9680175781
45.85572815 2202.4489746094
50.08168411 2366.1416015625
51.05090332 2361.0393066406
54.26354599 2354.5788574219
55.13476562 2430.3527832031
57.03427124 3048.5576171875
60.19355392 2570.8078613281
62.92113113 2313.2326660156
79.23369598 2614.6105957031
80.40681458 2797.935546875
82.19499207 2716.6691894531
83.01396942 2514.0183105469
84.27163696 2981.8627929688
85.02942657 8018.47265625
88.04423523 2549.5490722656
94.91783905 2501.4997558594
95.05014801 4775.1655273438
97.06590271 4277.0083007813
113.0969315 11052.9306640625
119.9530716 2195.0161132813
125.0607147 7304.3344726563
129.0556793 3997.9147949219
139.0762634 53906.69921875
141.0556183 11821.8701171875
153.2700653 2400.751953125
161.5700836 2277.3850097656
165.0554962 12177.51953125
165.0919952 7255.2666015625
176.6883698 2373.5300292969
191.8516083 2482.0693359375
195.1387787 5656.8110351563
202.370285 2299.8408203125
205.1235657 9176.0654296875
212.3377991 2344.8493652344
223.1336823 6384.30078125
237.1492615 24587.767578125
259.1335449 2935.96875
263.1275024 5145.0874023438
265.1455078 4620.798828125
277.1443176 22036.93359375
291.1242981 3448.7019042969
293.1396484 5248.873046875
363.2173462 4335.5864257813
366.2979126 2949.2160644531
381.4205627 2396.9389648438
389.196106 3285.2238769531
407.2064514 36872.734375

NAME: Isoxanthohumol
msLevel: MS2
RETENTIONTIME: 11.0394766666667
centroided: TRUE
PRECURSORMZ: 353.1393
precursorCharge: 0
TITLE: msLevel 2; retentionTime 662.3686; scanNum NA; scanIndex 0; precMz 353.1393; precCharge 0
SMILES: CC(=CCc1c(cc(c2C(=O)CC(c3ccc(cc3)O)Oc12)OC)O)C
FORMULA: C21H22O5
Num Peaks: 31
42.74825668 2483.2290039063
55.79055023 2518.5830078125
65.0032196 7568.5961914063
65.1095047 2501.8776855469
68.82057953 2827.7109375
74.19238281 2296.7595214844
85.06568146 4392.5756835938
97.06582642 4210.107421875
119.0501099 267935.96875
133.0659332 13316.966796875
141.0554962 9047.9501953125
149.996048 2381.9985351563
157.0656128 5103.66015625
159.0815125 2611.9458007813
163.0034027 5191.8549804688
165.0919189 13388.1806640625
173.0608368 4026.5241699219
175.0036316 6728.7729492188
181.0504913 4741.85546875
189.0918732 9287.2978515625
195.0665283 4386.5122070313
203.034317 2792.0083007813
218.0583038 10798.5595703125
233.0817719 102662.34375
235.7710266 2382.0893554688
251.0927734 3591.1591796875
264.7727356 2753.8828125
352.92276 2378.07421875
353.0999756 3484.3200683594
353.1392822 155468.1875
353.1967163 69550.5859375

NAME: acetohulupone
msLevel: MS2
RETENTIONTIME: 11.1076933333333
centroided: TRUE
PRECURSORMZ: 289.1442
precursorCharge: 1
TITLE: msLevel 2; retentionTime 666.4616; scanNum NA; scanIndex 0; precMz 289.1442; precCharge 1
SMILES: CC(=CCC1(CC=C(C)C)C(=O)C(C(=O)C)C(=O)C1=O)C
FORMULA: C17H22O4
Num Peaks: 39
42.00055695 2747.779296875
46.02822495 2254.7680664063
48.18530273 2358.1274414063
49.09402466 2397.818359375
57.2785759 2347.3129882813
61.04403687 2153.0847167969
63.8980217 2396.7453613281
65.00312805 3200.2294921875
69.03349304 2359.013671875
77.2855072 2564.3969726563
80.33618927 2465.9626464844
83.01387024 20378.685546875
87.23027802 2220.4931640625
88.57516479 2504.0151367188
93.82913208 2099.0446777344
96.83866882 2570.4978027344
104.278801 2248.4084472656
110.1725845 2146.5205078125
111.994812 2246.7072753906
124.010788 3354.4499511719
124.01651 77973.96875
133.0658417 4097.6733398438
137.0243225 6303.7177734375
152.0114594 94261.0546875
163.0397186 8556.8818359375
165.0191345 8830.8935546875
168.9072876 2830.5212402344
171.0231323 2252.9821777344
177.0555115 60501.4375
191.071228 6652.1845703125
192.0789948 64253.1875
193.2047424 2639.3178710938
205.0503693 49364.7578125
212.4096069 2425.2395019531
219.0657654 6422.8295898438
220.0739441 164303.328125
221.0821381 2808.6306152344
260.8621826 2445.9169921875
289.1444092 357083.125

NAME: linear cohumilinone
msLevel: MS2
RETENTIONTIME: 11.3139333333333
centroided: TRUE
PRECURSORMZ: 363.1809
precursorCharge: 1
TITLE: msLevel 2; retentionTime 678.836; scanNum NA; scanIndex 0; precMz 363.1809; precCharge 1
SMILES: CCCC(=O)C1=C(C(CC=C(C)C)(C(C(=O)CC=C(C)C)(C1=O)O)O)O
FORMULA: C20H28O6
Num Peaks: 114
40.35384369 22120.892578125
44.51829147 2329.263671875
46.77669525 2668.091796875
48.16719818 2402.1608886719
49.51230621 2329.8825683594
49.83015823 3168.0197753906
51.73808289 2346.2692871094
51.8363533 2315.4445800781
61.64742279 2493.9309082031
69.30961609 2449.455078125
79.05519867 4009.5297851563
81.03451538 7055.8637695313
81.90201569 2541.4438476563
83.01412964 3596.18359375
83.05841827 2725.1545410156
85.06578827 37438.0078125
86.50321198 2567.5439453125
87.04191589 2677.1062011719
87.04510498 14888.2041015625
95.05008698 10996.3740234375
96.02139282 5051.5200195313
96.83300018 2367.8029785156
97.06574249 3027.7866210938
108.0213318 3529.0354003906
109.0657959 12506.783203125
111.0089645 3420.8063964844
111.0450516 66223.1328125
111.081398 3266.619140625
113.06073 6869.6196289063
121.0659637 5269.0087890625
122.0371399 2614.7587890625
123.0449371 3045.126953125
123.0818939 3323.8256835938
124.0532761 4010.5454101563
124.5767212 3024.3522949219
125.0242996 6107.6435546875
125.0605927 5406.1953125
126.6369324 2452.6096191406
127.0762634 8225.3720703125
128.3898773 2294.2114257813
129.0558929 12403.029296875
135.7854004 2533.2858886719
136.0529633 8133.6000976563
137.0606079 5562.4345703125
138.0319061 2619.9072265625
139.0761566 21875.3828125
140.0475159 3363.9794921875
141.055542 21590.66796875
148.0523529 3313.6098632813
150.068634 3515.2705078125
151.0762024 19121.4375
152.0486145 3878.9738769531
162.0683899 2681.3493652344
163.0033875 6174.1684570313
163.0401001 3663.8491210938
163.0762634 4380.2138671875
164.0476379 25406.849609375
165.0554657 19989.8359375
167.1074219 9662.7314453125
173.3367767 3541.4697265625
178.0635071 16416.66796875
179.0713501 6414.64453125
180.0425568 4106.5454101563
181.0504303 118321.6015625
181.0606232 5181.7114257813
181.1230011 3233.974609375
182.0583954 7882.5268554688
183.0661621 19364.376953125
189.1294556 2642.1127929688
190.0991211 2759.5034179688
191.0359955 3276.5461425781
191.0709229 5749.763671875
191.1075592 8831.783203125
192.0788422 17904.294921875
193.0869751 5646.568359375
194.0587769 4565.6362304688
195.0661316 33160.76171875
195.5713043 2646.1223144531
197.0454102 10357.5634765625
206.0576172 15590.517578125
206.0942688 3986.5639648438
207.1021271 3141.5280761719
207.1391602 7387.7124023438
209.1180878 53065.90234375
217.0868073 4311.84375
221.1181183 5589.6635742188
223.0615387 6185.1201171875
225.0402985 14586.107421875
231.102829 8240.103515625
231.1390228 3149.2497558594
232.110321 8746.576171875
233.1180725 39183.73046875
235.0610809 3539.322265625
235.097702 23546.3984375
237.0764465 5949.0151367188
240.1272583 2682.2917480469
247.1329956 3325.7592773438
249.0956573 3207.294921875
249.1129608 222334.609375
250.12146 4120.9140625
251.1289215 22879.53515625
253.1080322 30851.125
260.1417542 3903.7380371094
261.0773315 5285.10546875
261.1494751 24740.26171875
267.1232605 21614.611328125
275.129425 5846.9057617188
277.1083374 8048.4736328125
294.1107483 13081.7744140625
301.1803894 8214.259765625
319.1914978 9141.26953125
345.171051 17321.962890625
363.1811218 556516.5625
367.2670288 2641.1938476563

NAME: posthumulione
msLevel: MS2
RETENTIONTIME: 11.3398666666667
centroided: TRUE
PRECURSORMZ: 349.1653
precursorCharge: 1
TITLE: msLevel 2; retentionTime 680.392; scanNum NA; scanIndex 0; precMz 349.1653; precCharge 1
SMILES: CCC(=O)C1=C(C(CC=C(C)C)(C(C(=O)CC=C(C)C)(C1=O)O)O)O
FORMULA: C19H26O6
Num Peaks: 58
42.03460312 2239.4621582031
50.6460495 2421.1174316406
50.92659378 2251.1801757813
57.12145615 2622.3625488281
61.49455643 2147.3723144531
71.05014038 32865.5546875
73.0293808 11147.146484375
92.6788559 2575.7348632813
93.60561371 2871.0700683594
95.05007172 9766.6640625
96.02172089 3429.5678710938
97.02936554 21956.419921875
109.065834 3231.3813476563
110.0009155 5266.2641601563
111.0450516 3321.048828125
111.0819626 2410.0444335938
113.0607529 4811.4155273438
121.0657425 4908.8647460938
124.0528259 2546.3991699219
125.0240326 4493.4409179688
125.0607376 4885.9565429688
126.0321655 5746.0952148438
127.0765839 4860.181640625
139.0398712 3040.9614257813
139.0708466 1905.4014892578
139.0762634 78024.953125
139.0830231 2817.1655273438
141.055542 41128.5625
153.0920258 20135.25
155.0715637 5138.5415039063
164.0475616 3518.9777832031
165.0552979 11939.923828125
167.1078644 2627.49609375
179.0715179 13461.6376953125
183.029953 3660.8325195313
192.0427246 5251.33203125
195.1025085 100239
196.037384 2372.9157714844
200.5327911 2709.9184570313
207.1024628 7866.2954101563
207.138916 3125.1394042969
208.6872711 2617.5375976563
211.0243683 2792.2468261719
221.0813446 3170.9587402344
225.1131897 2722.1640625
231.1383514 2885.208984375
235.0821228 3776.8498535156
235.0973969 82855.2421875
235.1099701 2468.6589355469
244.3048859 3039.8461914063
251.1289673 4559.5512695313
253.1076813 9133.2705078125
257.1183167 2831.6953125
261.1135254 6510.7333984375
275.1287231 11846.46484375
331.1550598 8887.3818359375
349.1654663 89661.0078125
349.477356 2685.8825683594

NAME: Xanthohumol D
msLevel: MS2
RETENTIONTIME: 11.38145
centroided: TRUE
PRECURSORMZ: 369.134
precursorCharge: 1
TITLE: msLevel 2; retentionTime 682.887; scanNum NA; scanIndex 0; precMz 369.134; precCharge 1
SMILES: C=C(C)C(Cc1c(cc(c(C(=O)/C=C/c2ccc(cc2)O)c1O)OC)O)O
FORMULA: C21H22O6
Num Peaks: 30
41.01523972 4480.7924804688
43.08993149 2237.7482910156
44.85587692 2790.1206054688
46.42406082 2148.9985351563
53.10239029 2544.02734375
58.86526489 2483.2834472656
65.00318146 2964.7062988281
87.29977417 2172.4987792969
119.0501251 85649.6875
123.3527374 2729.8950195313
128.0260773 2739.4875488281
134.9320831 2272.1076660156
145.0295868 2782.5327148438
163.0035248 3392.9924316406
175.00354 7232.23828125
177.0191803 3974.2622070313
204.0428467 6730.7216796875
217.0498352 5754.5576171875
219.0658264 2673.2233886719
226.6731415 2966.9372558594
234.0540466 2931.4733886719
249.0765991 36129.984375
257.842804 2637.0402832031
279.053772 3116.7353515625
295.0597534 5050.1376953125
307.0595703 4925.3935546875
337.1077271 2977.2443847656
339.1230164 2989.1376953125
350.8835144 2807.8774414063
369.1343689 126984.21875

NAME: Hulupinic acid
msLevel: MS2
RETENTIONTIME: 11.6891883333333
centroided: TRUE
PRECURSORMZ: 263.1287
precursorCharge: 1
TITLE: msLevel 2; retentionTime 701.3513; scanNum NA; scanIndex 0; precMz 263.1287; precCharge 1
SMILES: CC(=CCC1(CC=C(C)C)C(=O)C(=C(C1=O)O)O)C
FORMULA: C15H20O4
Num Peaks: 24
40.07326508 2407.3918457031
45.8055687 2837.9396972656
46.38669586 2374.16796875
48.35176468 2294.630859375
48.90432358 2760.3132324219
54.4596138 2146.6037597656
98.00088501 5259.251953125
98.17779541 2398.8725585938
123.0086288 6408.099609375
125.9896088 4771.9780273438
125.995697 157780.421875
136.6195831 2543.2014160156
137.9962616 2834.7719726563
139.003479 10213.1181640625
151.0036011 35189.07421875
165.0555725 3713.8420410156
179.0342102 4187.0771484375
191.5565948 2217.6801757813
193.0505371 18264.802734375
194.046402 2805.89453125
194.0581818 162259.671875
209.0448914 2710.7919921875
255.6103058 2454.1362304688
263.1285706 122289.1171875

NAME: linear humulinone
msLevel: MS2
RETENTIONTIME: 12.1961333333333
centroided: TRUE
PRECURSORMZ: 377.1963
precursorCharge: 1
TITLE: msLevel 2; retentionTime 731.768; scanNum NA; scanIndex 0; precMz 377.1963; precCharge 1
SMILES: CCCCC(=O)C1=C(C(CC=C(C)C)(C(C(=O)CC=C(C)C)(C1=O)O)O)O
FORMULA: C21H30O6
Num Peaks: 83
41.66028214 3129.5568847656
41.91110229 18911.298828125
54.41548538 2618.8120117188
57.03445816 5305.2021484375
59.01364899 3150.5766601563
70.46237946 2414.1896972656
72.29932404 2533.1923828125
95.05020905 13398.109375
96.02153015 6857.4116210938
99.08139038 33802.81640625
101.0607147 13644.849609375
101.8808441 2738.8344726563
105.7717514 2893.5859375
107.049736 3190.6940917969
108.0214081 5312.2280273438
109.0656891 7253.7241210938
110.0008087 5519.7270507813
111.0813293 10299.431640625
113.0606842 6797.8452148438
114.7945557 2367.1809082031
121.0658188 3633.3337402344
123.0814362 5902.0278320313
124.016304 5508.880859375
124.0526352 2952.5280761719
125.0606689 61413.48046875
127.0762939 10907.185546875
133.0656433 5761.6591796875
136.0163879 5179.4912109375
137.0607605 2821.3100585938
138.0685272 5163.6962890625
139.0763092 125770.4765625
139.0831604 6082.4897460938
141.0555878 36909.40625
151.0761261 5473.5942382813
152.0115509 4110.142578125
154.0636597 3223.7863769531
155.0710907 8321.1572265625
161.0602875 3574.3410644531
163.0034943 7411.5483398438
164.0113525 2989.7014160156
165.0557098 13018.140625
167.0712738 5350.9106445313
168.0062408 5511.8881835938
177.055481 6247.4404296875
179.071106 16032.466796875
180.0789032 3064.5209960938
181.1230011 7191.1123046875
183.0662842 2702.9501953125
192.0792084 33129.87890625
195.0664368 12368.6005859375
195.7267151 2629.2421875
205.0500641 15232.0283203125
205.0861969 3377.5375976563
207.0660706 3041.5349121094
207.1384735 13581.484375
208.0739441 4595.8974609375
211.060791 18716.05859375
214.2764435 2708.5461425781
219.1386261 4242.9145507813
220.0740509 30462.8984375
220.110733 3863.5002441406
221.045578 4619.490234375
223.1338196 100537.71875
223.1451721 1694.1291503906
235.1335449 7469.0825195313
239.0561218 21488.833984375
245.118103 12276.369140625
247.4585114 2676.0847167969
248.1051636 4836.4736328125
249.1127472 6842.1220703125
251.1290894 11051.8291015625
261.0967712 2706.7783203125
263.1286316 474258.3125
275.1289368 13014.10546875
281.1391602 55163.98828125
286.3244629 3019.7473144531
291.1234436 11161.3056640625
307.6040955 2418.474609375
308.1266174 7815.1723632813
309.2045593 2923.6333007813
359.1870422 14370.1103515625
377.1966248 456048.875
391.3104553 2737.7893066406

NAME: posthulupone
msLevel: MS2
RETENTIONTIME: 12.2610966666667
centroided: TRUE
PRECURSORMZ: 303.1598
precursorCharge: 1
TITLE: msLevel 2; retentionTime 735.6658; scanNum NA; scanIndex 0; precMz 303.1598; precCharge 1
SMILES: CCC(=O)C1C(=O)C(=O)C(CC=C(C)C)(CC=C(C)C)C1=O
FORMULA: C18H24O4
Num Peaks: 37
40.21947479 2183.9680175781
45.63935089 2261.8020019531
49.22979355 2255.5007324219
51.82710266 2429.7045898438
56.51060104 2325.2612304688
71.5577774 2573.5825195313
82.00597382 6457.5952148438
94.28427124 2455.9074707031
97.02932739 33776.4609375
110.0010223 5477.4228515625
126.0324631 3287.8374023438
133.0658112 10418.306640625
138.0252991 4325.19140625
138.032135 110683.875
150.068924 2661.9016113281
151.0399933 7727.7944335938
151.0779419 2519.9821777344
154.6759491 2321.1342773438
165.0556488 5206.1420898438
166.0180817 5665.6044921875
166.0269775 108191.7578125
177.055542 10232.49609375
177.2409363 2608.9477539063
179.035141 9829.4375
179.7014618 2406.6489257813
191.0347595 6193.38671875
191.071167 79438.9296875
205.050415 20443.962890625
205.0866394 11079.1416015625
206.0946808 70346.703125
219.0661469 67869.640625
224.6786346 2528.060546875
225.7316589 3028.8073730469
233.082077 4552.5893554688
234.0677795 3291.8728027344
234.0895844 183262.921875
303.1600037 463530.09375

NAME: 8-Prenylnaringenin
msLevel: MS2
RETENTIONTIME: 12.29443
centroided: TRUE
PRECURSORMZ: 339.1233
precursorCharge: 1
TITLE: msLevel 2; retentionTime 737.6658; scanNum NA; scanIndex 0; precMz 339.1233; precCharge 1
SMILES: CC(=CCc1c(cc(c2C(=O)CC(c3ccc(cc3)O)Oc12)O)O)C
FORMULA: C20H20O5
Num Peaks: 49
40.24745178 2715.140625
40.97612381 2221.8364257813
47.23117447 2543.8254394531
51.19414139 3021.4797363281
52.11229324 2513.6931152344
63.02391815 5664.9765625
65.00318909 15169.443359375
68.99804688 2908.8078613281
76.19742584 2410.4084472656
82.9020462 2666.861328125
88.06435394 2545.8159179688
90.98997498 2337.888671875
93.03444672 12978.9111328125
102.9489594 2622.5708007813
103.4598389 2418.6472167969
109.0657883 10769.0859375
115.9328842 2641.2512207031
119.0445175 5671.2919921875
119.0501022 182090.40625
119.0557632 4367.3208007813
131.0866547 7452.9291992188
132.6881866 2385.1552734375
133.0295563 2563.1247558594
133.0657196 53822.3828125
136.0163879 2846.1062011719
145.0297089 4256.7416992188
149.0604706 4482.5688476563
151.0761566 24495.90234375
161.06073 2301.9758300781
163.0031738 5020.0375976563
164.0114441 5080.0043945313
166.4761353 2444.1748046875
169.4849701 2831.6188964844
175.0762329 25166.392578125
176.0112915 19261.8046875
176.2984924 2518.1628417969
177.0191193 2427.0251464844
187.0399933 3056.8510742188
191.071106 6905.4453125
193.0872955 2964.6650390625
216.701767 2299.0241699219
219.0660858 167490.203125
224.0913086 2293.8823242188
233.0820465 7377.8798828125
245.0816803 11756.712890625
283.0614319 3293.1105957031
338.1833496 2788.7043457031
339.1235352 407597.15625
339.197937 6874.0576171875

NAME: XAN18
msLevel: MS2
RETENTIONTIME: 12.485345
centroided: TRUE
PRECURSORMZ: 337.1078
precursorCharge: 1
TITLE: msLevel 2; retentionTime 749.1207; scanNum NA; scanIndex 0; precMz 337.1078; precCharge 1
FORMULA: C20H18O5
Num Peaks: 26
40.78865433 2131.7709960938
42.26212311 2366.9045410156
42.69314957 1972.7846679688
43.51597214 2215.0334472656
44.78767395 2033.1616210938
48.15816498 2241.3620605469
49.41586304 2240.5446777344
55.31712723 2242.9741210938
60.31007385 2554.4443359375
64.29818726 2686.8603515625
65.00328064 2599.091796875
93.03427124 3101.705078125
107.0500488 7303.3090820313
119.0500641 55776.0859375
131.0500488 8435.1767578125
149.0606079 8994.517578125
173.0607147 14441.7958984375
187.0393372 2756.13671875
216.0082703 2305.8469238281
217.0504303 54694.22265625
226.6677856 2601.7502441406
231.0656586 4340.5361328125
236.1967316 2831.546875
337.1080017 87455.90625
337.2035217 4219.6015625
346.809906 2628.7216796875

NAME: Cohumulinone
msLevel: MS2
RETENTIONTIME: 12.6236916666667
centroided: TRUE
PRECURSORMZ: 363.1806
precursorCharge: 1
TITLE: msLevel 2; retentionTime 757.4215; scanNum NA; scanIndex 0; precMz 363.1806; precCharge 1
SMILES: CC(=CCC(=O)C1(C(=O)C(=C(C1(CC=C(C)C)O)O)C(=O)C(C)C)O)C
FORMULA: C20H28O6
Num Peaks: 117
40.35380936 164625.734375
41.00320053 27130.2578125
43.28971863 25310.86328125
46.61570358 24146.357421875
46.85276031 24686.80859375
53.51587296 24841.216796875
55.01897049 29981.4375
58.00585938 27887.595703125
59.01374435 55703.46484375
71.01374817 23543.125
72.02156067 24813.69140625
73.02935028 34079.1640625
73.10249329 28832.091796875
77.57473755 22476.6328125
80.56922913 22975.404296875
82.00592804 58303.2578125
85.06104279 35271.49609375
85.06578827 2002673
85.07054138 34607.140625
87.04506683 772755.375
87.04849243 42490.828125
95.05007172 309076.5
96.02152252 82610.7578125
97.06571198 85334.25
98.00054169 22671.544921875
99.0814209 38165.484375
101.0606308 177786.25
105.393219 27410.12109375
107.0501022 82023.6484375
108.0217056 28812.58203125
109.0657425 210853.75
110.0008698 153493.546875
110.5720978 22541.10546875
111.0450516 1082702.625
111.0814285 152123.78125
113.0606995 234502.625
120.0579758 19992.908203125
120.6334991 21864.935546875
121.0656891 115987.7421875
123.045166 35255.9765625
123.0814133 27928.25390625
124.0167847 43262.80078125
124.0528641 108243.2890625
125.0243378 311971.875
125.0607147 282902.59375
127.0038452 21890.568359375
127.0763702 313296.15625
133.0657654 51872.29296875
135.0447845 62470.359375
135.0816803 34093.87890625
136.0526733 70082.875
137.0604858 118893.3359375
138.0683899 33842.63671875
139.0400848 81162.8359375
139.0763092 1773786.5
139.1125488 147172.34375
140.0477295 286107.375
141.055542 2286018.5
143.0710907 31991.404296875
146.0618896 26507.724609375
149.0600281 25272.802734375
151.0762177 147431.125
152.0473785 40841.5546875
153.0558014 133426.09375
154.0638123 36302.46875
155.0711365 215851.953125
163.0035248 135557.953125
163.039856 47550.6484375
163.1125183 27707.060546875
165.0555115 607407.9375
165.0639038 47960.57421875
166.0054321 24627.625
166.0633698 37697.33203125
167.1075439 718409.375
169.050705 54991.60546875
177.1291046 35548.09375
178.0635071 169677.015625
179.071167 490407
181.0498962 54866.3359375
181.1233063 92100.3125
182.0587463 26765.70703125
188.6041412 24706.65625
191.0354919 36785.01953125
191.1076355 200613.109375
193.1233215 77856.4765625
194.0585327 26734.50390625
197.0455627 124413.921875
205.1234436 55804.609375
206.0584564 167001.390625
207.0299225 43678.7421875
207.1390991 175295.40625
209.1180878 5127651
219.1032867 30049.521484375
221.117981 295549.59375
223.1334381 142767.640625
225.0410461 156625.109375
231.1022491 94181.984375
231.1384735 88730.28125
233.1184082 69828.3125
234.090683 41953.9296875
235.0974731 334248.5625
237.1129761 92014.984375
239.1286774 43891.59765625
247.1335297 30509.306640625
249.1129913 3706886
251.1286621 290307.09375
257.1180115 53004.55859375
258.6299744 22884.505859375
267.1238708 505014.4375
275.1288452 651100.875
276.1003418 53508.30078125
277.1078491 76052.40625
294.1115723 51089.72265625
301.1820374 41923.67578125
317.1773071 25159.259765625
345.1705933 282682.625
363.1811218 4073178

NAME: Desmethylxanthohumol
msLevel: MS2
RETENTIONTIME: 12.9944333333333
centroided: TRUE
PRECURSORMZ: 339.1236
precursorCharge: 1
TITLE: msLevel 2; retentionTime 779.666; scanNum NA; scanIndex 0; precMz 339.1236; precCharge 1
SMILES: CC(=CCc1c(cc(c(C(=O)/C=C/c2ccc(cc2)O)c1O)O)O)C
FORMULA: C20H20O5
Num Peaks: 42
40.75452805 2364.0192871094
42.72203445 2230.822265625
44.67438126 2466.1955566406
60.66301727 2298.2993164063
61.97170258 2298.125
62.93405151 2832.7805175781
63.02389526 4180.2211914063
65.00312805 7872.2216796875
66.74356079 2294.7094726563
69.11437225 2217.7165527344
69.24520874 2650.8422851563
70.9627533 2304.083984375
75.54084015 2506.2370605469
83.01383972 2837.8962402344
83.2169342 2033.2896728516
93.03461456 5656.2895507813
97.23983765 2279.4836425781
102.5353851 2332.5031738281
104.9564209 2264.0510253906
109.0657806 6168.9716796875
119.050148 81543.8515625
125.908165 2724.6843261719
131.0867462 3507.7944335938
133.0657654 30948.837890625
139.6176453 2423.8422851563
145.0290527 3277.2280273438
149.5800629 2181.2727050781
151.0764313 7796.5366210938
168.9741211 2143.203125
175.0766144 9309.7822265625
176.0115356 6857.5561523438
177.0189209 2564.2568359375
183.0114288 2391.9729003906
191.0715179 3378.775390625
211.2623596 2795.4245605469
219.0662384 91872.0234375
233.0815582 5609.826171875
295.1343994 3171.0695800781
339.0960999 3247.7722167969
339.1236877 201720.46875
339.1508484 4169.66796875
339.1980286 13149.4287109375

NAME: 4-deoxyhulupinic acid
msLevel: MS2
RETENTIONTIME: 13.05598
centroided: TRUE
PRECURSORMZ: 247.1338
precursorCharge: 0
TITLE: msLevel 2; retentionTime 783.3588; scanNum NA; scanIndex 0; precMz 247.1338; precCharge 0
SMILES: CC(=CCC1(CC=C(C)C)C(=O)CC(=O)C1=O)C
FORMULA: C15H20O3
Num Peaks: 20
51.20326614 2424.5212402344
69.6580658 1936.3511962891
70.86328888 2911.7993164063
78.42028046 2413.1943359375
82.00604248 7432.6782226563
91.76229095 2220.4340820313
99.48871613 2266.0275878906
110.000824 19453.744140625
123.0087204 2832.6989746094
135.0451813 3454.2685546875
150.0685577 4634.5512695313
163.0398102 8493.216796875
164.822403 2075.6357421875
178.0632172 16695.615234375
202.165863 2278.7153320313
220.0510101 2433.3364257813
226.6749573 3524.3767089844
245.1933594 2225.6987304688
247.1336975 58277.6640625
257.1956177 2205.1477050781

NAME: 6-Prenylnaringenin
msLevel: MS2
RETENTIONTIME: 13.4320666666667
centroided: TRUE
PRECURSORMZ: 339.1236
precursorCharge: 1
TITLE: msLevel 2; retentionTime 805.924; scanNum NA; scanIndex 0; precMz 339.1236; precCharge 1
SMILES: CC(=CCc1c(cc2c(C(=O)CC(c3ccc(cc3)O)O2)c1O)O)C
FORMULA: C20H20O5
Num Peaks: 39
41.00315857 3296.8151855469
41.85962677 2478.5834960938
42.21644974 2520.6359863281
47.56039047 2190.8337402344
48.69142532 2530.5104980469
55.31801605 2444.9094238281
60.97403336 2752.4643554688
63.02390671 7331.3686523438
64.47608185 2584.6203613281
65.00317383 18916.01171875
72.83959961 2950.8344726563
93.03445435 17832.494140625
93.25878906 2430.6677246094
98.70384979 2425.7294921875
109.0657501 16446.3828125
119.0501022 178958.3125
131.0864258 5693.5390625
133.0657501 57377.5390625
136.0157776 3229.1840820313
145.0296021 5019.0341796875
147.0810699 3156.6652832031
151.0764923 25121.81640625
157.0654297 2663.0187988281
164.0115204 2845.01953125
175.0762482 25641.25
176.0111694 18515.8359375
177.0196381 3408.5212402344
183.0113983 4644.396484375
184.5425873 2774.1606445313
187.0389709 2629.4213867188
190.0265808 3767.7683105469
191.0713043 4036.296875
193.08638 4420.0078125
219.06604 170765.8125
233.0823059 14238.2958984375
245.0818481 9382.3134765625
295.1347046 3624.2104492188
339.1235962 372503.96875
339.1990967 10784.443359375

NAME: (O-,4-)-prenyl-tyrosine
msLevel: MS2
RETENTIONTIME: 13.4465716666667
centroided: TRUE
PRECURSORMZ: 316.1914
precursorCharge: 1
TITLE: msLevel 2; retentionTime 806.7943; scanNum NA; scanIndex 0; precMz 316.1914; precCharge 1
SMILES: CC(=CCc1cc(ccc1OCC=C(C)C)CC(C(=O)O)N)C
FORMULA: C19H27NO3
Num Peaks: 34
42.28532028 2923.3383789063
55.75856781 2319.0393066406
59.03273392 3388.6694335938
64.01901245 2656.6613769531
65.99852753 3289.052734375
80.36335754 2288.3947753906
85.99494171 2407.5192871094
86.37466431 3093.7956542969
88.58194733 2405.2419433594
109.0167618 3075.7624511719
110.0611115 3598.2709960938
110.3900986 2236.4702148438
115.0550613 2393.8491210938
133.016983 2486.734375
136.0038605 48619.67578125
136.0400391 3291.7341308594
143.5513 2425.6442871094
151.063736 45386.2578125
161.0113983 11355.109375
176.0714722 3262.1569824219
179.0585938 106506.4453125
192.0659943 2632.6352539063
204.0542145 2907.9975585938
204.0664215 74941.890625
204.1025238 8452.55859375
219.1263123 4922.2446289063
227.7021179 2167.8513183594
232.097702 37615.41796875
246.1135712 5844.9814453125
247.1044006 2367.1455078125
247.121048 93333.4296875
274.5843506 2137.1977539063
294.9682312 2690.9948730469
316.1915588 290293.65625

NAME: humulinone
msLevel: MS2
RETENTIONTIME: 13.56145
centroided: TRUE
PRECURSORMZ: 377.1962
precursorCharge: 1
TITLE: msLevel 2; retentionTime 813.687; scanNum NA; scanIndex 0; precMz 377.1962; precCharge 1
SMILES: CC(=CCC(=O)C1(C(=O)C(=C(C1(CC=C(C)C)O)O)C(=O)CC(C)C)O)C
FORMULA: C21H30O6
Num Peaks: 107
41.00316238 118996.84375
41.91115189 529061.4375
47.66979599 66247.640625
57.03450394 423853.40625
58.00589371 206750.140625
59.01369095 75545.8515625
71.01378632 140088.453125
72.02163696 129961.6875
73.02938843 183271.171875
80.02648926 74556.3828125
82.00605011 120301.3359375
83.01374817 97108.5625
83.05036926 68404.59375
93.37462616 84255.1484375
95.05013275 1115860.5
96.02162933 504179.90625
97.06572723 172770.609375
99.08140564 3185513.25
101.0607071 1547885.625
107.0500336 154346.75
109.0657654 547750.75
110.0007935 429363.34375
111.0086746 241885.140625
111.081337 897521.125
113.0607224 430123.65625
115.0762405 267506
115.2705383 73097.765625
121.0656967 699684.625
123.0452118 100060.0625
123.0813828 147399.1875
124.0164337 152708.171875
124.0527496 221559.53125
125.0559235 56731.640625
125.0606308 3723209.5
127.0763168 938869.4375
130.5503082 70465.6796875
135.0450134 299426.6875
135.0811462 119948.8359375
136.0162201 163319.625
136.0525665 163666.34375
137.0606079 291701.1875
138.0684509 165435.90625
139.0619202 103549.1953125
139.0709839 258664.875
139.0762329 13232539
139.0904236 105722.0234375
141.055542 5583013
144.3991241 79760.859375
149.0610352 72998.234375
151.076004 460666.75
153.055481 355179.8125
153.0919189 75287.390625
153.1283264 169422.0625
154.0635681 250246.34375
154.3298492 63238.32421875
155.0710297 551612.375
157.0867004 176533.328125
163.003067 133362.40625
163.0400848 174750.875
165.0193787 115212.09375
165.0555573 1773938.375
165.7999725 68538.6796875
166.0632477 82829.125
167.0709686 337143
178.0631409 90419.8984375
179.0710907 1462418.125
179.1434937 119547.8828125
181.1233521 746578.5625
183.0660858 151898.59375
192.0786896 565307.5
193.1229553 81070.2265625
195.0661316 185884.296875
195.1389313 185673.78125
197.0815582 93758.8046875
205.0505829 254228.140625
205.0859833 75348.6875
205.1231689 295442.875
207.1391296 479325.9375
211.0610657 438893.375
211.1339569 127350.9140625
219.1390533 180389.125
220.0738525 549933.375
223.1337433 12430335
226.6702271 111482.9609375
231.1389465 251396.53125
233.1181335 318972.9375
235.1338654 1002036.0625
237.1488953 95166.8359375
239.0562897 533674.3125
245.1182709 166875.78125
248.1053467 93560.8671875
249.1131744 886504.625
251.1287689 1022183
251.1439972 119343.6171875
253.1443634 159220.484375
257.1183777 212825.828125
262.1203918 127130.5625
263.1286316 11611388
275.1286621 1474834.375
281.1394043 1468361.375
290.115387 140422.953125
291.1241455 149011.5625
293.1391907 194329.515625
308.1266479 190203.984375
315.1973877 133707.078125
359.1860657 840882.4375
377.1966553 13274958

NAME: Cohulupone
msLevel: MS2
RETENTIONTIME: 13.6583616666667
centroided: TRUE
PRECURSORMZ: 317.1752
precursorCharge: 1
TITLE: msLevel 2; retentionTime 819.5017; scanNum NA; scanIndex 0; precMz 317.1752; precCharge 1
SMILES: CC(=CCC1(CC=C(C)C)C(=C(C(=O)C(C)C)C(=O)C1=O)O)C
FORMULA: C19H26O4
Num Peaks: 51
41.17811584 31850.900390625
54.88832855 29599.8828125
60.02454376 29378.0234375
65.00312805 148977.59375
77.9799881 25484.41796875
79.2948761 43168.36328125
82.00588989 233050.71875
97.02959442 31784.08984375
104.0738297 32632.474609375
110.0007324 163911.109375
111.0449448 883283.8125
113.0608368 39302.1484375
119.0497589 29533.091796875
133.0656586 947140.375
136.9880524 136913.5625
137.0239563 173996.0625
138.0320435 82110.6796875
140.047699 63838.34765625
150.0684662 102148.6484375
151.039856 53334.24609375
152.0476379 2967408
163.0398254 35606.125
165.055542 183688.046875
177.0552826 48247.46875
178.0632172 114643.484375
179.0709991 159821.203125
180.0424805 3177505.5
190.7930908 28332.357421875
191.0708313 156784.640625
193.0502777 226478.484375
205.0503387 2698973
205.0744324 64866.9140625
205.0866394 1909836.25
215.0711823 41380.3046875
219.1023254 329987.78125
220.0962677 67076.6484375
220.1101685 1731875.25
220.1245117 31404.064453125
226.6691742 44994.65234375
233.0815582 1813802.875
247.0975647 170061.703125
248.1049652 5306844.5
249.1130981 35540.0625
250.695343 27254.548828125
271.1372986 29720.306640625
275.4776917 28781.259765625
317.1265564 91962.3515625
317.1752625 16932164
317.2124939 89798.15625
317.2241516 135678.5625
317.2514648 40370.91796875

NAME: adhumulinone
msLevel: MS2
RETENTIONTIME: 13.871615
centroided: TRUE
PRECURSORMZ: 377.1963
precursorCharge: 1
TITLE: msLevel 2; retentionTime 832.2969; scanNum NA; scanIndex 0; precMz 377.1963; precCharge 1
SMILES: CCC(C)C(=O)C1=C(C(CC=C(C)C)(C(C(=O)CC=C(C)C)(C1=O)O)O)O
FORMULA: C21H30O6
Num Peaks: 133
41.62066269 16679.943359375
41.91117096 124410.984375
56.24264526 15870.212890625
58.00597763 24659.267578125
59.01371765 34607.12890625
63.19128036 14937.0009765625
65.34306335 15276.9345703125
67.12974548 15886.1875
71.01374054 26423.17578125
71.05020142 158329.171875
72.02166748 16415.62890625
80.02641296 20686.390625
81.30604553 14145.7978515625
91.01886749 23037.19921875
92.35620117 15090.193359375
95.05010986 200869.65625
96.02150726 107803.09375
97.0658493 43331.69140625
98.00095367 26076.49609375
98.03720856 14582.71484375
99.08141327 1173037.125
101.0606689 373728.4375
107.0500793 32618.970703125
108.0217438 32074.072265625
109.0656433 108455.8125
109.9964905 14631.5927734375
110.000885 65263.5078125
111.0814362 128670.1875
113.0606995 97449.6328125
115.0763626 80838.9375
116.8710709 14743.365234375
121.065712 93595.9140625
122.0370102 22893.466796875
123.0454102 24315.123046875
123.0813522 39740.35546875
124.0164719 47383.015625
124.0318985 15590.3642578125
124.0527267 41887.11328125
125.0243759 96290.3203125
125.0606537 794462.0625
127.0763245 195388.65625
131.7356415 13891.80859375
131.9945526 14012.296875
135.0449829 52197.9140625
135.0813141 38502.796875
136.0531464 27733.201171875
136.2153473 20986.451171875
137.0606537 76558.078125
138.0323029 44832.984375
138.0685883 42565.12890625
139.0709381 23820.478515625
139.0762787 1489396.875
141.0555573 1142648
150.8146362 14707.806640625
151.0761261 71812.859375
153.0558319 82482.9765625
153.1286011 81985.8515625
154.0635376 109897.7109375
155.0711975 169149.53125
157.086792 32229.966796875
162.48526 16526.634765625
163.0037079 76505.25
163.0402679 23276.923828125
165.0556335 347572
166.0632629 50745.015625
167.0713654 56487.1015625
173.8332367 18731.578125
178.0633545 26939.68359375
179.0350952 23217.8671875
179.0712128 301010.96875
180.0791473 177744.78125
181.1231995 307279.53125
182.0587616 18393.716796875
189.1294403 16274.103515625
189.8425598 15103.7041015625
191.034729 24534.9765625
191.1438751 24825.986328125
192.0792542 63355.09765625
193.0501404 26975.26953125
193.1229248 33825.45703125
194.0960846 16143.0263671875
195.065567 37528.125
195.1389465 82974.1015625
205.0506744 17851.515625
205.0865631 17658.98046875
205.1228943 65119.64453125
206.0582123 26313.154296875
207.0665436 28099.310546875
207.138855 103460.34375
208.0736237 105026.84375
211.0609589 101509.7421875
219.0666351 21442.865234375
219.1026917 21694.9140625
219.138916 24254.248046875
220.0735931 75867.046875
221.0457306 24373.59765625
221.0817108 128948.5234375
223.1337433 3101134
226.6762695 24697.314453125
231.1383209 61481.90234375
233.1179199 67386.8671875
234.0898132 18672.609375
235.1337128 160455.875
236.0688171 305336.8125
237.1492004 21156.84375
239.0561829 77355.5546875
245.1173859 36461.453125
247.1341095 21502.67578125
248.1055756 23605.52734375
249.0769348 168427.015625
249.1127167 199888.75
249.3336182 18767.099609375
250.0850677 44046.43359375
251.1283569 168946.265625
252.0639496 30919.7109375
252.1378784 16472.21875
253.1443634 32912.83984375
257.1178589 27484.8359375
258.6702881 16514.333984375
263.1286621 2489023
275.1286316 353072.84375
280.1322021 19019.98046875
281.1392517 357433.65625
290.1157837 42241.5234375
291.1232605 225337.40625
291.1418457 27153.30859375
308.1264038 1526897
311.0657043 15093.953125
315.195343 22260
331.1889648 23864.640625
359.1858826 204125.515625
377.1966553 3327027.5
393.7064819 16580.353515625

NAME: dihydrocohumulinone
msLevel: MS2
RETENTIONTIME: 13.88444
centroided: TRUE
PRECURSORMZ: 365.1966
precursorCharge: 1
TITLE: msLevel 2; retentionTime 833.0664; scanNum NA; scanIndex 0; precMz 365.1966; precCharge 1
SMILES: CC(C)CCC(=O)C1(C(=O)C(=C(C1(CC=C(C)C)O)O)C(=O)C(C)C)O
FORMULA: C20H30O6
Num Peaks: 78
40.57778549 7281.7592773438
47.2730484 2486.9719238281
49.1931076 2212.9895019531
49.4771843 2924.1291503906
65.02182007 2338.345703125
66.34727478 2829.3337402344
70.58321381 2394.2504882813
85.06259155 5329.2666015625
85.0657959 83983.0078125
87.0450592 25955.69921875
95.05018616 10769.361328125
97.06600189 3437.3581542969
99.08137512 9237.251953125
101.0608063 10367.9697265625
109.0657578 4661.4921875
110.0008469 6691.3525390625
111.04496 31747.43359375
111.0814972 6075.7895507813
113.0607529 5349.5795898438
114.2766037 2314.7531738281
115.0764465 12543.3486328125
121.0657272 4300.26171875
124.0528641 3676.267578125
125.0241547 11299.681640625
125.0606537 6570.498046875
125.0973816 3070.2944335938
127.0766525 4344.115234375
128.4363403 3570.89453125
129.0919189 24533.947265625
139.0402374 3772.3994140625
139.076355 72882.8671875
139.1130829 6773.470703125
140.0479431 11157.3330078125
141.0556488 62093.56640625
141.0921631 7854.62890625
143.0714722 12190.0380859375
153.0922089 2493.4387207031
155.0713959 4757.34375
156.0793762 3087.5534667969
157.0869446 5593.5317382813
161.743988 2438.2392578125
163.004303 3899.4965820313
165.0558472 24893.853515625
167.1075897 29740.021484375
169.6529694 2973.2102050781
171.1394653 3031.2883300781
178.0633392 3897.9467773438
179.0705261 5189.25
181.0870209 7210.734375
191.1078949 5438.4038085938
195.029953 3961.9887695313
195.138855 3123.6752929688
197.0451813 6715.3120117188
197.1546326 2896.1843261719
206.0579834 6797.8862304688
209.1181335 191529.859375
209.1544189 7389.2919921875
211.1340179 14388.8701171875
225.1490326 9322.7568359375
226.6683655 5348.9252929688
231.1023865 2719.9072265625
233.1551971 5356.4682617188
235.0976868 8417.708984375
239.1292725 4421.7236328125
241.1447296 2899.0222167969
249.1131439 71288.046875
249.1490784 3295.6311035156
251.1288757 16133.7578125
252.100296 10164.365234375
253.144516 9882.7255859375
260.0210266 2484.8395996094
267.1255798 3006.1428222656
277.1444702 33004.6875
279.123291 5804.2563476563
293.2115784 3682.3334960938
296.1262207 15843.919921875
347.1860657 10767.9345703125
365.1968689 214218.53125

NAME: Xanthohumol
msLevel: MS2
RETENTIONTIME: 13.9951483333333
centroided: TRUE
PRECURSORMZ: 353.1386
precursorCharge: 1
TITLE: msLevel 2; retentionTime 839.7089; scanNum NA; scanIndex 0; precMz 353.1386; precCharge 1
SMILES: CC(=CCc1c(cc(c(C(=O)/C=C/c2ccc(cc2)O)c1O)OC)O)C
FORMULA: C21H22O5
Num Peaks: 76
42.62256241 120673.609375
65.00318146 718613.875
75.20775604 112402.875
88.28614044 127153.1171875
88.38832855 112985.9609375
95.01386261 267044.65625
96.22545624 98330.125
97.02950287 675898.6875
98.00079346 859830.125
106.0421448 176317.4375
117.0342941 185451.09375
119.0220718 143113.953125
119.0500565 49976504
119.0833511 108943.375
121.0295944 177123.921875
122.001091 203429.984375
131.0139618 159276.265625
131.0504456 132341.296875
133.0658569 2374601.75
137.9956665 179017.59375
145.0292969 1420141
149.0242157 242918.40625
149.9957123 611437.375
157.0654755 806490.375
159.0450287 465195.125
159.0816193 605533.875
161.0237885 252548.890625
162.0683594 473353.34375
163.0036163 2066956.875
165.0918732 2644267.75
167.4032745 116780.4453125
173.0605011 595606.875
174.0685883 235023.484375
175.0035095 3671430.25
175.0397949 397966.75
177.0193329 302110.65625
178.0254517 115135.2265625
189.0191345 437926.6875
189.0465088 114613.5703125
189.0552216 648894.875
189.0919495 2511482
190.0272369 167761.453125
190.0633392 1971108.375
192.0784454 118552.546875
201.055191 217637.171875
202.5678406 110966.2265625
203.0347748 1086612.875
203.0711975 386845
204.0789642 245499.875
205.0861816 148136.015625
207.1022491 185405.875
217.050705 462909.3125
218.0581665 3374637
219.0660858 204801.75
232.0737915 552706.4375
233.0816345 26014944
247.0970764 973483.25
251.0706024 170217.140625
251.0920868 227555.34375
267.0661926 234334.765625
268.1108398 166156.953125
269.0446167 226268.015625
270.0531311 324092.5
283.0611877 945270.5625
294.274231 113790.4765625
295.0610046 2482477
309.1489258 311114.34375
310.1214905 244828.671875
311.1285095 358212.71875
321.1125488 138551.3125
321.76297 116238.4375
323.0921936 304523.53125
337.1085815 128171.140625
338.1149902 397894.21875
353.0828552 468712.59375
353.1390686 66285088

NAME: hydroxydihydrohumulone
msLevel: MS2
RETENTIONTIME: 14.0426733333333
centroided: TRUE
PRECURSORMZ: 379.2123
precursorCharge: 1
TITLE: msLevel 2; retentionTime 842.5604; scanNum NA; scanIndex 0; precMz 379.2123; precCharge 1
SMILES: CC(=CCC1(C(=C(CCC(C)(C)O)C(=C(C(=O)CC(C)C)C1=O)O)O)O)C
FORMULA: C21H32O6
Num Peaks: 38
42.1350708 5340.1909179688
49.43864059 2178.8935546875
52.22882843 2455.2729492188
57.14604568 2274.6494140625
64.02411652 2226.3801269531
73.02996063 2291.7321777344
74.4593811 2482.7365722656
79.1423645 2302.3461914063
83.88167572 2279.537109375
86.86171722 2628.2019042969
92.70886993 2232.4404296875
94.22380066 2326.9743652344
125.060463 2911.5490722656
140.0800171 3515.6613769531
181.0149841 3012.2492675781
195.0287781 11523.8681640625
209.0815582 23857.146484375
223.09729 32400.62890625
224.1377411 2499.2863769531
237.0765991 46126.07421875
237.1127777 16948.306640625
246.3111725 2948.6020507813
251.0756989 3786.4458007813
251.0922852 87933.328125
252.1007385 3733.185546875
254.0797882 12067.5771484375
278.1157532 3526.1323242188
290.9388733 2947.5361328125
297.0194397 2940.2451171875
310.1419983 366824.71875
311.1689758 8513.162109375
341.4198914 2367.2905273438
361.1651306 4239.2172851563
361.2002869 4830.3461914063
361.7503967 2380.1147460938
379.1781311 5254.5395507813
379.2122803 180785.765625
393.4091187 2836.7182617188

NAME: Lupolone G
msLevel: MS2
RETENTIONTIME: 14.2311516666667
centroided: TRUE
PRECURSORMZ: 387.2173
precursorCharge: 1
TITLE: msLevel 2; retentionTime 853.8691; scanNum NA; scanIndex 0; precMz 387.2173; precCharge 1
SMILES: CC(=CCC1=C2C(CC=C(C)C)(CC(C(C)(C)O)O2)C(=O)C(=C1O)C(=O)C)C
FORMULA: C23H32O5
Num Peaks: 33
42.53287125 2420.5595703125
43.02455139 3587.9479980469
49.76317215 2405.8432617188
50.6853447 2171.7768554688
56.52257919 2083.3364257813
59.66940689 2018.1014404297
71.81648254 2549.8479003906
77.00365448 2661.8979492188
94.98988342 2220.7448730469
126.1381531 2426.4716796875
126.5053711 2364.9592285156
128.9768219 2529.4152832031
151.7559814 2602.0510253906
166.0269775 3201.4143066406
177.3913879 3052.5322265625
179.0347443 5063.7680664063
191.0348816 12525.587890625
216.4718933 2427.0913085938
226.6690216 4325.5546875
234.0890656 5554.1762695313
235.0976868 8177.0415039063
245.0823975 3667.8547363281
247.0970306 7748.4453125
259.0975342 53398.58984375
265.3587036 2429.3527832031
275.0921021 10027.037109375
281.5483398 2703.4689941406
287.1282349 5841.3330078125
293.0124512 2492.4226074219
301.1437073 7612.4169921875
302.1521606 7771.6850585938
318.1477661 5348.5737304688
387.2173462 94941.34375

NAME: 8-Geranylnaringenin
msLevel: MS2
RETENTIONTIME: 14.40852
centroided: TRUE
PRECURSORMZ: 407.1845
precursorCharge: 1
TITLE: msLevel 2; retentionTime 864.5112; scanNum NA; scanIndex 0; precMz 407.1845; precCharge 1
SMILES: CC(=CCC/C(=C/Cc1c(cc(c2C(=O)CC(c3ccc(cc3)O)Oc12)O)O)/C)C
FORMULA: C25H28O5
Num Peaks: 46
45.24334335 12262.181640625
46.76232529 2258.4328613281
49.02761459 2225.3205566406
51.45643234 2330.20703125
54.6739006 2240.9187011719
57.5322113 2470.6496582031
59.08477783 2502.4050292969
63.02394485 3531.5754394531
63.30580139 2686.8232421875
63.49285126 2741.1669921875
65.0032196 11552.6279296875
78.07288361 2488.2614746094
93.03450012 8250.1904296875
94.25165558 2598.6032714844
101.0604401 3739.8142089844
119.0445557 3359.0246582031
119.0501251 101572.5625
133.0655823 3274.1320800781
150.0316925 2732.5363769531
160.3893585 2330.8227539063
163.0032959 7654.4125976563
176.0114136 14492.0537109375
177.0196075 2815.2807617188
177.1180878 2111.658203125
177.1282349 6876.8676757813
190.0630035 4212.857421875
201.1285858 24851.376953125
218.0582733 6165.8798828125
219.1388397 14517.0908203125
219.1505585 3048.5246582031
226.6674194 3561.7634277344
243.1386414 10431.8583984375
255.9689026 2288.4189453125
260.4493713 2754.6328125
261.1491699 6334.5688476563
264.1954041 2748.4733886719
283.0612488 5877.796875
287.1287842 98867.0625
301.1447754 4466.9467773438
305.1381531 3311.2395019531
313.1435242 4168.0361328125
317.1390381 3176.611328125
395.5082397 2489.1560058594
396.2102051 2632.5400390625
407.1858521 288197.875
407.220459 5347.5864257813

NAME: 5'-Prenylisoxanthohumol
msLevel: MS2
RETENTIONTIME: 14.447435
centroided: TRUE
PRECURSORMZ: 421.2013
precursorCharge: 1
TITLE: msLevel 2; retentionTime 866.8461; scanNum NA; scanIndex 0; precMz 421.2013; precCharge 1
SMILES: CC(=CCc1c(c(CC=C(C)C)c2c(C(=O)CC(c3ccc(cc3)O)O2)c1OC)O)C
FORMULA: C26H30O5
Num Peaks: 21
42.54530716 2664.5053710938
49.74659348 2200.8957519531
50.43477249 2125.0209960938
61.93749237 2186.5639648438
63.76382446 2440.4128417969
63.86151123 2586.8674316406
70.16014862 2492.1635742188
119.0500488 52556.3515625
140.0771179 2200.9460449219
163.3562927 2289.4916992188
170.7854309 2682.2822265625
183.3223267 2559.3459472656
226.8818359 2424.8908691406
233.1542206 5597.34765625
243.0661621 9216.048828125
286.1200562 3543.0502929688
301.1446228 13619.80859375
342.2122498 2784.0202636719
421.1664734 5444.341796875
421.2013245 51020.765625
422.0287476 2582.9272460938

NAME: Acetohumulone
msLevel: MS2
RETENTIONTIME: 14.5207616666667
centroided: TRUE
PRECURSORMZ: 319.1547
precursorCharge: 1
TITLE: msLevel 2; retentionTime 871.2457; scanNum NA; scanIndex 0; precMz 319.1547; precCharge 1
SMILES: CC(=CCC1=C(C(CC=C(C)C)(C(=O)C(=C1O)C(=O)C)O)O)C
FORMULA: C18H24O5
Num Peaks: 32
44.29853439 2229.0510253906
45.83499527 2365.7873535156
53.43260574 2855.0073242188
61.11880493 2361.6193847656
88.61391449 2340.1198730469
89.24108887 2601.9685058594
97.78645325 2328.546875
107.0500793 2306.1687011719
124.0162888 2295.9370117188
124.8075027 2283.326171875
137.0240631 13982.5830078125
138.0319519 5631.248046875
165.0190735 31419.025390625
167.0346222 10736.8974609375
179.0346832 75468.46875
182.021759 10214.6640625
194.0950165 7643.740234375
195.02948 19733.953125
207.0168762 3539.5412597656
207.0296173 137205.8125
207.0423889 2841.9680175781
207.0658112 12076.041015625
210.0464783 3190.1135253906
230.7104187 2565.1645507813
231.1390991 3276.3598632813
235.0605316 9158.2802734375
250.0842896 476838.21875
301.1454773 3018.5339355469
319.134491 2253.1513671875
319.1546631 123403.3515625
319.1800232 2461.8566894531
333.6748657 2726.3908691406

NAME: linear dihydrocohumulinone
msLevel: MS2
RETENTIONTIME: 14.5884433333333
centroided: TRUE
PRECURSORMZ: 365.1967
precursorCharge: 1
TITLE: msLevel 2; retentionTime 875.3066; scanNum NA; scanIndex 0; precMz 365.1967; precCharge 1
SMILES: CCCC(=O)C1=C(C(CC=C(C)C)(C(C(=O)CCC(C)C)(C1=O)O)O)O
FORMULA: C20H30O6
Num Peaks: 32
45.23364639 2551.5270996094
78.96855164 2818.8337402344
79.71546936 2466.9465332031
85.06594086 8279.751953125
87.04501343 5009.4462890625
97.20276642 2520.9426269531
111.0449982 7406.0439453125
113.5346985 2603.8442382813
129.092041 4372.9614257813
138.2825928 2519.3024902344
139.0764618 6923.90234375
141.0558014 6306.115234375
141.0921936 7555.5947265625
143.0715179 8008.3232421875
155.8542786 2823.9375
160.2518921 2229.7163085938
167.107666 5514.1215820313
179.1770477 2883.0334472656
191.1081848 4037.4704589844
209.1180267 19825.9609375
209.1545563 4000.8178710938
211.1337128 16183.091796875
233.25354 2228.8889160156
235.0982666 2417.5893554688
235.1339417 6556.2690429688
247.6594086 2284.8972167969
249.1128845 9443.3037109375
251.1289825 7668.0087890625
253.1443634 7584.265625
259.6741028 2859.0805664063
277.1447449 9418.4306640625
365.1967468 47139.46875

NAME: LUP25 (Lupulone G isomer)
msLevel: MS2
RETENTIONTIME: 14.595695
centroided: TRUE
PRECURSORMZ: 387.217
precursorCharge: 1
TITLE: msLevel 2; retentionTime 875.7417; scanNum NA; scanIndex 0; precMz 387.217; precCharge 1
FORMULA: C23H32O5
Num Peaks: 32
43.02457047 3136.8601074219
48.8637619 2266.5146484375
53.36167908 2179.9421386719
61.47369766 2198.4321289063
62.55017853 2792.0993652344
62.67974472 2691.5187988281
67.06139374 2439.4536132813
88.60929108 2647.7607421875
94.58765411 2516.5234375
97.39987946 2199.1057128906
98.42017365 2397.9777832031
106.4174881 2476.4223632813
126.1159286 2237.6040039063
131.6348572 2510.068359375
191.0346832 7292.1181640625
198.0177612 2244.2749023438
217.0503845 8002.4702148438
217.0864868 2509.9409179688
226.6724854 3528.3601074219
245.0813904 3055.0932617188
250.0844879 3503.6218261719
259.0973816 51538.60546875
260.1055298 3609.7407226563
261.0761719 2524.4191894531
263.0924377 4337.5620117188
275.0924683 23695.65625
301.1437378 3634.7565917969
303.1224365 2759.7919921875
318.1466064 10348.0908203125
382.401947 2195.80859375
387.1853943 2935.939453125
387.217041 82465.7734375

NAME: XAN19
msLevel: MS2
RETENTIONTIME: 14.7122933333333
centroided: TRUE
PRECURSORMZ: 401.2327
precursorCharge: 1
TITLE: msLevel 2; retentionTime 882.7376; scanNum NA; scanIndex 0; precMz 401.2327; precCharge 1
FORMULA: C24H34O5
Num Peaks: 99
41.24730301 11263.76171875
42.58058167 8235.859375
44.58060837 20666.029296875
44.58190918 132187.609375
54.67225266 7435.3706054688
66.55164337 8301.6455078125
71.13146973 8100.2939453125
83.01378632 20581.56640625
95.01383972 8419.6318359375
107.0499954 11176.55078125
108.7482452 7749.7319335938
111.081459 9050.5009765625
113.0242157 8185.5786132813
124.0164795 24612.83984375
137.0238953 18949.8203125
138.0323029 9282.048828125
145.6910095 7611.3872070313
147.0454254 9222.84375
149.0241394 33077.8046875
149.0967102 14216.7919921875
154.026474 8063.6245117188
157.1346741 9904.3115234375
166.0269623 73120.7421875
173.0973206 15422.779296875
175.0763245 19849.53125
177.0920563 8692.5380859375
179.0347595 21150.7890625
191.034668 225816.28125
191.0451202 15659.146484375
191.071167 28192.8828125
192.078949 47832.67578125
196.0374756 62557.625
203.0346527 86114.4296875
203.0710144 18861.46875
204.0424957 21054.421875
205.0867004 78969.265625
209.0458527 28794.93359375
215.1077423 26949.025390625
216.0427551 11154.4482421875
217.086731 321000.34375
217.0999756 18867.484375
217.1604462 12852.1044921875
218.1303864 10225.115234375
219.0655212 25726.69140625
219.1022186 33151.5390625
221.0452423 182475.9375
226.6761627 10745.046875
227.1087036 9360.1953125
229.0865936 9627.7236328125
231.0654144 12615.541015625
231.1019287 19421.662109375
232.1461487 17031.92578125
233.0810852 19291.771484375
234.089035 49730.55078125
243.0663605 42121.43359375
243.1389008 9630.13671875
244.0735474 15802.0849609375
245.0821228 60977.39453125
245.1179352 31180.08203125
246.0895081 25248.275390625
247.0972443 121672.4765625
249.0763245 9234.6005859375
256.0726624 8972.6533203125
257.0810547 16992.3671875
257.1558533 7855.931640625
259.09729 1292722.875
259.1326904 40928.7578125
259.1698608 18617.2578125
260.1417542 60385.953125
261.1134644 19244.064453125
261.1504822 9359.2412109375
261.2209778 9327.8017578125
262.1577759 12884.82421875
263.0921936 9891.6044921875
264.1002502 112437.578125
271.09729 666244.8125
275.0921021 40130.8984375
277.1080933 129790.46875
287.128479 75308.0234375
289.1078491 862453.75
299.1278381 38194.78515625
301.1435242 15904.052734375
302.1515808 82247.2890625
304.1671753 14535.6455078125
313.1447144 14343.7314453125
314.1513977 45261.38671875
315.15979 14210.318359375
317.1394043 36578.14453125
327.2324829 41656.94921875
329.1870117 14293.92578125
329.2119751 265111.65625
332.1626587 281038.1875
333.1972351 34767.890625
339.2329712 25750.75390625
371.2223511 254616.59375
383.2222595 153546.109375
383.816803 8377.9072265625
401.1642151 20028.296875
401.2327881 3343487.25

NAME: dihydroadhumulinone
msLevel: MS2
RETENTIONTIME: 14.7134383333333
centroided: TRUE
PRECURSORMZ: 379.2121
precursorCharge: 1
TITLE: msLevel 2; retentionTime 882.8063; scanNum NA; scanIndex 0; precMz 379.2121; precCharge 1
SMILES: CCC(C)C(=O)C1=C(C(CC=C(C)C)(C(C(=O)CCC(C)C)(C1=O)O)O)O
FORMULA: С21H32O6
Num Peaks: 76
42.1350975 14087.0517578125
49.63881683 2840.7624511719
57.0344696 2641.7595214844
59.0136795 5276.416015625
71.57526398 2613.1889648438
71.84233856 3001.8916015625
95.04999542 12621.857421875
95.16577148 2709.7841796875
96.02144623 4578.015625
97.06556702 3833.2895507813
98.03718567 24186.955078125
99.0813446 19647.033203125
101.0607224 26154.876953125
102.1457901 2649.6015625
107.0501328 3682.4221191406
109.0657349 9014.6162109375
111.0811844 6474.923828125
113.0605698 5134.955078125
113.097229 5881.17578125
115.0766068 13416.6533203125
123.0812607 3089.3244628906
124.0163879 5879.76953125
125.0606308 57614.20703125
127.076416 11680.9287109375
129.0918274 29130.6015625
135.0449677 8427.5712890625
135.0815735 3425.9951171875
137.0972443 2763.4392089844
139.0762329 33895.91015625
141.0554199 11664.673828125
141.0919189 354688.59375
141.607132 2583.6474609375
143.0712128 116113.5
147.5284882 2761.5480957031
150.3607025 2512.0993652344
151.0762787 3348.09375
153.0551147 2768.3212890625
153.0915375 2937.1928710938
155.1072693 4282.8364257813
157.0866089 13148.7109375
165.0192871 12622.822265625
165.0557098 4465.2353515625
167.0712738 37317.85546875
180.0790253 6479.0283203125
181.0866241 19201.494140625
183.0666046 2471.451171875
183.1387329 11462.5888671875
195.0306396 3832.0983886719
195.1390533 2736.6840820313
197.1542816 5768.255859375
208.0733643 6218.4169921875
209.1543579 17166.431640625
211.0608521 3102.958984375
223.133728 29534.5546875
225.149353 278761.96875
226.181076 2503.3200683594
226.677536 3126.5795898438
233.1552582 3801.4379882813
235.1338654 24119.22265625
237.1128845 11639.0703125
247.1340027 6416.7690429688
249.1130219 4038.2856445313
251.1285553 5000.6787109375
252.0998993 9903.955078125
253.1441193 21463.341796875
263.1282349 27339.10546875
263.5447388 2648.0910644531
265.1442871 192790.578125
277.1441956 26547.66796875
283.1548767 25551.6796875
295.1558838 5331.4169921875
310.1423035 12394.3671875
311.1686096 5553.0634765625
361.169342 2402.6384277344
361.2023621 13786.3544921875
379.2122192 345243.46875

NAME: adhulupone
msLevel: MS2
RETENTIONTIME: 14.7583
centroided: TRUE
PRECURSORMZ: 331.1908
precursorCharge: 1
TITLE: msLevel 2; retentionTime 885.498; scanNum NA; scanIndex 0; precMz 331.1908; precCharge 1
SMILES: CCC(C)C(=O)C1C(=O)C(=O)C(CC=C(C)C)(CC=C(C)C)C1=O
FORMULA: C20H28O4
Num Peaks: 71
41.00306702 20882.416015625
50.29527283 19859.126953125
67.06110382 19885.404296875
82.00590515 228060.828125
83.01390839 90420.65625
96.02172852 33252.91015625
98.00075531 34207.8125
110.0007935 267408.53125
115.0551376 34761.63671875
119.0505371 27101.71875
119.7705154 20977.73046875
123.0084915 25787.50390625
123.0451431 25068.1796875
124.0164337 591979.0625
125.0606155 774550.875
125.0664368 34954.87109375
127.0763702 34732.72265625
133.0657349 250658.65625
135.0445404 35976.82421875
136.9882355 25365.357421875
137.9957581 70690.953125
138.0683441 126838.4453125
150.068512 157362.390625
151.0403595 51803.22265625
152.0480194 90974.125
156.1681671 21740.380859375
157.0658264 115345.921875
163.0401001 81977.578125
164.0842743 20098.9453125
165.0552826 42648.70703125
166.0632935 2523600
173.0602875 36343.2734375
175.0761261 35277.00390625
177.0556946 28313.56640625
178.0632935 467885.21875
179.0349731 55713.28515625
179.0712433 203146.5625
185.0970917 41338.91796875
191.0710907 1103900.625
192.0791321 103738.484375
193.0865631 108503.609375
194.0465851 44868.51171875
194.0581818 2262206
201.0555878 40574.78125
203.035675 21129.958984375
205.0503845 381425.6875
205.0873108 113998.078125
206.0583191 28651.0703125
206.1308289 26833.345703125
207.0664062 195353.6875
219.0660553 2149319.5
219.0880127 47149.6171875
219.1023865 1271640
221.082489 27235.44140625
226.6774597 28374.873046875
233.1182556 192352.984375
234.1258698 1173856
247.0973206 1500311.25
247.1139679 39328.1328125
247.1328125 30417.384765625
256.9881287 23357.01171875
261.1131287 113510.3671875
262.1208191 3787828.75
263.1296082 46486.67578125
315.3209534 21548.755859375
331.1391296 88736.1171875
331.1500244 66096.109375
331.1910095 13210722
331.2426147 80212.796875
336.6749573 23573.68359375
337.1201477 30639.962890625

NAME: 4-hydroxycolupulone
msLevel: MS2
RETENTIONTIME: 14.9765466666667
centroided: TRUE
PRECURSORMZ: 415.2483
precursorCharge: 1
TITLE: msLevel 2; retentionTime 898.5928; scanNum NA; scanIndex 0; precMz 415.2483; precCharge 1
SMILES: CC(=CCC1(CC=C(C)C)C(=O)C(=C(C(CC=C(C)C)(C1=O)O)O)C(=O)C(C)C)C
FORMULA: C25H36O5
Num Peaks: 101
41.44199753 5298.396484375
46.13785934 25735.9296875
46.13928986 125492.9921875
53.76759338 6202.7729492188
55.75428391 5278.4208984375
56.58490372 5239.2119140625
74.68608093 5279.091796875
79.47839355 6606.421875
84.4225235 5771.47265625
97.7121048 5461.8159179688
103.8141022 7174.8374023438
107.0503998 6404.9892578125
118.5656891 6570.8256835938
119.0327377 5952.4873046875
123.0397339 6120.1860351563
127.0398636 16480.65625
127.6749878 5369.8681640625
137.024353 9707.7490234375
137.4416962 8190.0893554688
144.4686127 5735.994140625
147.0883789 5782.2358398438
148.0166168 11182.837890625
149.0243073 41128.53515625
149.0970764 9305.3291015625
152.0116119 15460.720703125
157.0658417 6821.8212890625
158.0936279 6470.8076171875
159.0816803 7224.6611328125
161.0245972 7018.888671875
161.0971069 8433.779296875
163.0766602 6984.1767578125
167.3479004 6903.64453125
173.0972595 21841.3359375
175.0763092 16419.521484375
177.0190277 10627.490234375
177.0553894 8091.310546875
180.0426025 9857.134765625
189.092392 9731.6787109375
191.0712738 16717.216796875
191.1072845 5388.2690429688
192.0791168 19294.822265625
193.2111206 5248.8422851563
201.1271362 5826.3500976563
203.0716095 16844.171875
203.1072845 8734.26953125
205.0506897 5451.5073242188
205.0869446 62526.18359375
210.0532684 73519.5234375
214.8327637 6241.5556640625
217.0504456 16866.560546875
217.0867615 405092.71875
217.1229706 7083.6840820313
217.1598053 13361.423828125
219.102356 11314.1142578125
220.0739899 6654.6499023438
221.0809784 5466.0053710938
223.0609283 50780.08203125
231.0663452 11020.98828125
234.1264191 10545.14453125
235.0455017 9808.6611328125
235.0500031 6832.1508789063
235.0609589 357107.6875
235.0763245 11730.2431640625
243.0660553 17351.267578125
245.0823212 24858.3125
245.1044617 8150.0297851563
245.1175232 37868.8515625
247.0971527 8864.2919921875
255.10289 27418.697265625
259.1342163 21130.6796875
260.1415405 21286.546875
261.1132202 54798.33984375
263.0918884 15405.84765625
265.0330811 5649.7822265625
271.0975647 7943.1293945313
273.1132202 21595.822265625
275.1295471 26534.03125
277.1082153 16286.17578125
278.1157837 129018.390625
285.1130066 55619.2109375
285.2220764 13646.1357421875
287.1292419 9609.08203125
288.1004944 5938.0791015625
289.1080322 73321.9609375
290.116272 7082.953125
291.1237183 204535.59375
302.1893921 9149.1630859375
303.1235046 1903976.375
315.160614 35883.9921875
318.1831055 11141.5849609375
329.1752625 11706.123046875
329.2121887 112968.3984375
331.1546631 103978.75
345.1706848 26036.025390625
346.1508789 6357.4755859375
346.1784058 242294.65625
347.186554 10632.494140625
371.2572632 10027.5419921875
397.2380676 18099.875
415.1759338 23729.623046875
415.2484436 3190332

NAME: Lupulone H
msLevel: MS2
RETENTIONTIME: 15.0323833333333
centroided: TRUE
PRECURSORMZ: 401.2326
precursorCharge: 0
TITLE: msLevel 2; retentionTime 901.943; scanNum NA; scanIndex 0; precMz 401.2326; precCharge 0
SMILES: CCC(=O)C1=C(C(=C2C(CC=C(C)C)(CC(C(C)(C)O)O2)C1=O)CC=C(C)C)O
FORMULA: C24H34O5
Num Peaks: 45
40.45737457 2446.2395019531
42.57798767 2393.1484375
43.73060226 2340.5837402344
44.58184433 4395.3735351563
47.40941238 2351.8493652344
50.57074356 2173.6340332031
55.68666077 2088.7185058594
56.95933914 2443.525390625
61.98811722 2837.7692871094
76.63832092 2296.8676757813
98.39572906 2931.8947753906
110.278923 2186.6926269531
115.0259476 2265.55859375
115.5543747 2290.251953125
129.9755554 2112.4602050781
132.8355255 2328.66796875
134.7403564 1923.3336181641
137.4486237 2177.7119140625
138.2388306 2264.3391113281
141.8230743 2696.3198242188
148.041687 2344.7097167969
180.0426025 4388.833984375
181.1427612 2568.3283691406
186.2196655 2630.0390625
205.0505524 19367.287109375
210.5072479 2316.8312988281
217.0874481 3611.6823730469
218.7558594 2453.6440429688
224.7832184 2179.3015136719
226.6770935 2682.3217773438
248.1049805 6418.8681640625
249.112854 8182.2504882813
259.0971985 8553.0205078125
261.1140442 3342.4565429688
271.0979919 2704.8112792969
273.1130066 64102.08984375
277.1065674 2457.9592285156
289.1076965 14243.4345703125
301.1443787 4542.1791992188
315.1596985 8882.9365234375
316.1668701 5603.2827148438
331.3407288 2774.4252929688
332.1620483 4115.447265625
401.2038269 3113.4106445313
401.2329407 109785.5625

NAME: linear dihydrohumulinone
msLevel: MS2
RETENTIONTIME: 15.0554383333333
centroided: TRUE
PRECURSORMZ: 379.2119
precursorCharge: 1
TITLE: msLevel 2; retentionTime 903.3263; scanNum NA; scanIndex 0; precMz 379.2119; precCharge 1
SMILES: CCCCC(=O)C1=C(C(CC=C(C)C)(C(C(=O)CCC(C)C)(C1=O)O)O)O
FORMULA: С21H32O6
Num Peaks: 89
42.13509369 15747.685546875
42.77412796 2773.8137207031
57.0344696 6567.2431640625
59.30641174 2285.9169921875
62.60417938 2582.2780761719
68.76946259 2460.2536621094
70.9731369 2817.1499023438
78.48298645 2512.7912597656
80.21340942 2272.1411132813
87.28494263 2788.1867675781
95.05007172 24421.96875
96.02146149 10374.19921875
97.06572723 5620.4521484375
99.08139801 69173.4140625
101.0605392 34388.328125
109.0655212 3917.3120117188
109.9254456 2639.1279296875
110.0007935 7417.8510742188
111.0088043 2817.818359375
111.0814896 19580.0625
112.6946793 2317.5895996094
113.0606079 4890.8637695313
115.0762405 22781.142578125
116.1828003 2861.4482421875
121.065712 10091.0986328125
123.0816193 3239.6208496094
124.0164871 3677.0617675781
125.0606232 61712.20703125
127.0762863 10007.4150390625
129.0918274 45890.19140625
137.0603943 5226.853515625
137.3751068 2593.5270996094
139.0762024 249156.078125
140.9009247 2320.5166015625
141.055481 96525.4375
141.0918121 48647.67578125
143.0712128 20279.19140625
143.1078949 3776.1696777344
151.0766296 3771.2917480469
151.1124725 5186.689453125
153.0557404 2657.4619140625
156.0785217 3475.2275390625
157.0864716 8400.9072265625
165.0554962 36785.60546875
166.8730164 2979.1235351563
167.0711212 8496.640625
179.0710907 14363.4150390625
181.0866547 6713.6674804688
181.1231689 14067.255859375
181.1587067 3129.4987792969
183.1387634 4132.9716796875
195.0657349 2939.7131347656
195.1387939 5599.111328125
197.1543732 4805.6655273438
205.1236267 6411.2680664063
209.1544037 13462.2626953125
211.0607605 7131.8725585938
212.3948212 2826.8359375
220.0735016 6788.93359375
223.133606 254406.546875
225.1494141 65063.74609375
233.1541748 12998.9794921875
235.133667 6079.5561523438
237.1130066 9650.6025390625
237.1488953 4787.2758789063
245.1189728 3240.43359375
249.1127472 17529.529296875
251.127533 4358.2583007813
253.1445312 17554.068359375
255.1600342 3035.5327148438
263.1285706 112696.9921875
263.146759 3794.0026855469
265.144165 41639.2421875
267.1282654 2659.01953125
277.1443787 44451.5703125
283.1549683 3330.9860839844
292.1318665 2971.330078125
293.1387329 6534.6640625
294.1469727 8145.142578125
295.1553345 9767.0634765625
310.1416626 2947.9211425781
311.1688538 3936.9291992188
314.8205261 2325.4838867188
333.2073364 3529.013671875
335.2229919 4012.2551269531
361.1659851 2913.2316894531
361.2016296 20424.67578125
379.1775818 5357.3911132813
379.2120972 392983.71875

NAME: linear prehumulinone
msLevel: MS2
RETENTIONTIME: 15.1119366666667
centroided: TRUE
PRECURSORMZ: 391.2117
precursorCharge: 1
TITLE: msLevel 2; retentionTime 906.7162; scanNum NA; scanIndex 0; precMz 391.2117; precCharge 1
SMILES: CCCCCC(=O)C1=C(C(CC=C(C)C)(C(C(=O)CC=C(C)C)(C1=O)O)O)O
FORMULA: C22H32O6
Num Peaks: 24
55.20779037 2616.9162597656
65.48987579 2215.9025878906
72.93080139 2300.3698730469
84.43726349 2074.5185546875
95.05023193 3543.783203125
96.56360626 2449.0812988281
113.0970154 5347.6489257813
115.0769119 3613.8935546875
139.0762787 29821.751953125
141.055542 8523.0283203125
144.199234 2383.017578125
165.0556488 3940.0793457031
179.0710297 4504.7890625
195.1385651 2741.4130859375
226.6696014 3781.7587890625
237.1494751 22982.765625
247.1338654 3574.7104492188
263.1274109 2635.9616699219
275.1289062 3801.0290527344
277.1440735 20074.966796875
302.4528198 2622.1057128906
391.1799927 3639.6892089844
391.2122192 33879.421875
405.2218018 2464.1689453125

NAME: 3'-Geranylchalconaringenin
msLevel: MS2
RETENTIONTIME: 15.2402666666667
centroided: TRUE
PRECURSORMZ: 407.1856
precursorCharge: 1
TITLE: msLevel 2; retentionTime 914.416; scanNum NA; scanIndex 0; precMz 407.1856; precCharge 1
SMILES: CC(=CCC/C(=C/Cc1c(cc(c(C(=O)/C=C/c2ccc(cc2)O)c1O)O)O)/C)C
FORMULA: C25H28O5
Num Peaks: 79
41.00317764 3145.3444824219
41.38476944 2236.3791503906
41.94262695 2261.849609375
42.33466339 2586.3056640625
42.42913055 2424.7971191406
42.45857239 2728.12890625
43.09174347 2576.6735839844
43.39118195 2327.4226074219
43.66183472 2923.6462402344
44.4540329 2421.8725585938
45.24200821 3485.11328125
45.2433548 39523.92578125
48.98865509 2565.9379882813
53.18154526 2876.37109375
63.02391052 10197.3984375
65.00320435 31654.701171875
68.99814606 2980.4895019531
71.01369476 4825.9926757813
71.33297729 2649.849609375
77.34029388 2726.6572265625
83.01343536 4362.4497070313
93.03447723 18229.185546875
95.11894989 2467.9975585938
98.00101471 4744.837890625
107.9017563 2753.6750488281
108.8826141 2722.6882324219
109.0657349 6839.7255859375
109.6895294 2581.4606933594
119.0500946 321967.90625
133.0657043 6466.29296875
136.0162964 3676.0278320313
143.0497437 4998.0444335938
145.0293579 10266.6796875
148.0163116 4047.7551269531
149.0242767 3505.6213378906
149.9955902 4660.6796875
161.06073 11111.67578125
163.0037384 18018.39453125
164.0111237 4739.0126953125
164.809906 2431.0290527344
172.0527191 4094.4162597656
175.0399323 21308.533203125
176.011261 23002.03125
177.0191193 6848.0791015625
177.1280975 15813.5478515625
182.953949 2562.0754394531
185.0600891 6316.6020507813
187.0395203 13336.962890625
189.019104 4575.98828125
189.055603 19038.4921875
190.0632782 37003.40625
199.1489563 4823.5244140625
201.0546722 2936.2358398438
201.1282654 71689.4609375
217.0502625 7013.8188476563
218.058197 24728.439453125
219.1387634 28041.310546875
226.6679688 3745.6921386719
235.1327362 2681.0856933594
243.1385803 20788.013671875
244.0730591 2816.7492675781
251.1289215 3987.8247070313
256.5530701 2320.2648925781
257.2750549 2497.0993652344
259.1344604 7392.3930664063
261.1490479 7042.9760742188
270.0534973 3597.4409179688
283.061615 12298.796875
287.1286926 331318.96875
293.8536682 2560.7565917969
295.0602417 2799.6154785156
301.1444397 15529.291015625
313.1444092 10435.0166015625
321.1858521 2941.263671875
338.1159668 4714.8984375
351.1246643 4308.4135742188
363.1959839 14868.16015625
407.1859436 978696.8125
407.2767029 3387.4323730469

NAME: dihydroacetohumulone
msLevel: MS2
RETENTIONTIME: 15.328455
centroided: TRUE
PRECURSORMZ: 321.1703
precursorCharge: 1
TITLE: msLevel 2; retentionTime 919.7073; scanNum NA; scanIndex 0; precMz 321.1703; precCharge 1
SMILES: CC(C)CCC1=C(C(CC=C(C)C)(C(=O)C(=C1O)C(=O)C)O)O
FORMULA: C18H26O5
Num Peaks: 24
48.28851318 2320.1865234375
51.70230484 2833.7038574219
54.51146317 3039.7060546875
68.6627121 2232.0197753906
75.88726044 2021.9576416016
103.5008392 2390.1206054688
116.9283142 3046.4489746094
126.6407166 2565.568359375
153.0195618 2572.4226074219
167.0347443 24474.203125
181.0506134 9840.34765625
195.0296936 60800.5234375
196.0375214 8610.69921875
209.0453491 30546.365234375
223.8936615 2285.5209960938
226.6684875 2235.4140625
242.0647278 2294.173828125
245.4906311 2074.3999023438
252.1000977 270123.9375
267.2700195 2411.0026855469
282.2042847 2212.1755371094
298.8702698 2227.0046386719
303.1587219 4216.5541992188
321.1705933 77078.0234375

NAME: XAN20
msLevel: MS2
RETENTIONTIME: 15.3659283333333
centroided: TRUE
PRECURSORMZ: 415.2482
precursorCharge: 1
TITLE: msLevel 2; retentionTime 921.9557; scanNum NA; scanIndex 0; precMz 415.2482; precCharge 1
FORMULA: C24H32O6
Num Peaks: 102
41.24736023 92736.6015625
46.13783646 77372.8828125
46.13924789 580009.4375
50.2913475 32537.12109375
52.32930756 26799.224609375
54.85716248 26369.81640625
60.61970139 26163.345703125
72.32204437 27642.251953125
72.51770782 30279.48046875
83.01383209 103692.59375
103.2162857 26368.978515625
112.5842209 29367.693359375
120.6086502 27195.458984375
124.0161743 61461.93359375
137.024353 82114.5078125
138.0325012 32788.6484375
149.0245819 59305.19921875
149.0970306 35387.4140625
163.0045319 27391.078125
163.0399628 43872.65234375
163.0763855 29022.044921875
166.0270538 416282.03125
173.0965424 48097.125
175.0760498 60270.421875
177.0554962 30638.12109375
177.0917053 41626.27734375
179.0350342 191607.9375
181.0511017 47477.85546875
182.0580139 46247.328125
191.0348969 1178273.25
191.0434113 25356.712890625
191.0712585 102666.8828125
192.0791168 242645.0625
203.0710449 75262.03125
203.1076965 47395.59375
204.0431519 138198.453125
205.0513916 31277.10546875
205.0867157 241063.734375
210.0531769 99772.140625
215.1077423 95991.421875
215.1439667 34366.10546875
217.0510406 157338.71875
217.0868073 1083715.875
217.1596069 32541.10546875
219.0660095 85210.453125
219.102951 50830.2265625
223.0610046 99941.7109375
226.6713715 41837.23828125
231.1026611 54372.265625
231.1756897 30525.728515625
232.1465149 78617.8828125
233.081604 67723.0703125
234.0896454 365410.09375
235.0609741 351394.40625
241.0866241 53930.828125
243.0661011 181722.75
243.1042328 33353.375
243.139389 36090.43359375
244.0740356 107582.953125
245.0814972 286003.59375
245.1181488 69409.3203125
246.0888367 37101.87890625
247.0973969 667169.25
251.1281433 44788.16796875
259.0973511 7665748
259.1322327 184353.03125
259.1690979 131133.765625
260.1420593 339000
261.1129761 75602.1953125
261.1492615 102206.265625
273.1133118 139141.015625
274.1566772 55529.8515625
278.1156311 331043.9375
285.1131287 769823.75
285.1472473 28430.115234375
285.2232971 51945.27734375
286.1211243 31669.349609375
287.1290894 522931.90625
289.1081543 58286.6015625
291.1236572 393866.15625
301.1443176 142930.21875
302.1522217 785261.5
303.1237793 1821070.875
303.1569214 51559.87109375
313.1437378 91784.8046875
318.1837158 43082.76171875
327.2330322 347004.96875
328.1692505 80915.828125
329.1751099 54895.76171875
329.2120972 1283279.75
329.2315979 18139.341796875
331.1556091 51683.296875
346.1783752 637964.5625
347.1868286 260868.078125
371.1918945 55899.83203125
371.2225037 2287426
371.2537231 66161.1640625
393.9025879 32079.111328125
397.2385254 341211.5625
415.1757812 98027.671875
415.2485352 14236181
415.3215027 108108.1796875

NAME: 6,8-Diprenylnaringenin
msLevel: MS2
RETENTIONTIME: 15.3670716666667
centroided: TRUE
PRECURSORMZ: 407.1856
precursorCharge: 1
TITLE: msLevel 2; retentionTime 922.0243; scanNum NA; scanIndex 0; precMz 407.1856; precCharge 1
SMILES: CC(=CCc1c(c(CC=C(C)C)c2c(C(=O)CC(c3ccc(cc3)O)O2)c1O)O)C
FORMULA: C25H28O5
Num Peaks: 59
45.24337006 21226.763671875
45.3128624 2844.671875
45.79611206 2280.7163085938
48.40179062 2624.8330078125
50.91233063 2452.6247558594
55.12147522 2534.8208007813
60.51339722 2660.2114257813
63.02394485 4465.306640625
65.00319672 6963.4233398438
72.07590485 2616.6398925781
76.26363373 2747.2573242188
85.79763794 2557.3229980469
88.56053162 2769.4370117188
93.03431702 13763.58984375
103.6263351 2760.052734375
109.0657501 5584.2651367188
116.9410706 2476.5495605469
119.0444794 4526.8081054688
119.0501022 221415.828125
119.0556564 5964.4506835938
119.3936157 2199.8095703125
128.5541687 2675.6372070313
131.0865326 8573.904296875
133.0657654 29560.103515625
135.081665 3217.0991210938
138.1536102 2781.7214355469
145.0292664 4457.810546875
159.0450897 3827.2912597656
163.0034637 7787.1459960938
170.5632782 2451.8896484375
173.0605164 4427.1518554688
175.0030518 2756.794921875
176.0111237 6316.77734375
178.0634003 6992.7294921875
187.0400391 4916.8916015625
189.019043 9732.921875
190.0633087 2383.3845214844
199.149292 3976.0085449219
200.0843964 2844.3647460938
201.0191345 11089.068359375
201.0554504 3142.603515625
217.0498199 3000.7004394531
218.0588531 6303.3833007813
219.1392975 16695.85546875
226.671402 3785.2233886719
229.0502777 8055.8740234375
234.0533752 21526.123046875
241.12323 2920.4750976563
243.0662689 2566.6918945313
243.1385803 18585.724609375
244.074173 7088.251953125
245.0806274 3645.1462402344
259.1337891 8055.142578125
261.1495361 5718.1953125
287.1287537 177533.421875
301.1441956 18809.900390625
313.1438293 8751.5029296875
338.1157837 38192.390625
407.1860046 532890.5

NAME: hulupone
msLevel: MS2
RETENTIONTIME: 15.3984533333333
centroided: TRUE
PRECURSORMZ: 331.191
precursorCharge: 1
TITLE: msLevel 2; retentionTime 923.9072; scanNum NA; scanIndex 0; precMz 331.191; precCharge 1
SMILES: CC(=CCC1(CC=C(C)C)C(=O)C(C(=O)CC(C)C)C(=O)C1=O)C
FORMULA: C20H28O4
Num Peaks: 79
42.19525528 4839.4228515625
43.21498871 4844.1713867188
45.00199509 5017.35546875
45.20953369 6292.4584960938
46.12607574 5216.3618164063
46.31905365 5001.505859375
56.5812645 4955.9428710938
57.28042984 5570.1923828125
63.8022995 5392.93359375
65.00324249 29817.033203125
74.99207306 4752.6459960938
75.66462708 5059.310546875
82.00598145 42997.671875
82.79917908 6176.0151367188
88.89102936 6100.38671875
95.2684021 6349.0307617188
98.00093079 9782.4052734375
101.3492432 5441.1645507813
102.9889374 5200.6655273438
104.928688 6517.7470703125
110.0007629 49473.80859375
110.0373306 10991.1904296875
119.0501785 6337.7651367188
124.0167236 7386.6142578125
125.0606461 225283.609375
125.0664139 10938.51171875
127.076416 6286.443359375
133.0657196 216336.875
135.0449829 12982.2177734375
136.987854 40489.12890625
137.0245056 22254.36328125
138.0320435 97673.921875
138.0382996 6099.2060546875
138.068573 8200.14453125
149.0606384 7205.6396484375
150.0685577 19682.1328125
151.0400238 40500.1015625
152.047699 35677.5546875
153.9060974 4863.5751953125
154.0635986 6927.5131835938
163.0401001 19787.865234375
165.0561829 7185.4794921875
166.0563049 7387.4311523438
166.0633087 524176.59375
166.0725861 8517.1494140625
171.0818481 6166.7124023438
175.1129761 5219.2114257813
177.0559387 5498.1967773438
178.0633698 66950.40625
178.099411 6722.2529296875
179.0712738 38545.484375
191.0713348 8595.2021484375
193.0864258 27519.0546875
194.0487976 8718.7314453125
194.058197 490774.3125
203.1084747 5198.9243164063
205.0378418 11237.9765625
205.0404968 8289.453125
205.0503845 474012.96875
205.0629425 11589.12109375
205.0867004 115844.3125
206.094696 15252.9150390625
207.0661774 40826.62109375
219.0660706 60424.1875
219.0814362 6144.3017578125
219.1024323 300126.03125
221.0818481 7884.5546875
229.0878143 6700.4458007813
233.0816803 159369.109375
233.1180573 47429.328125
234.1259155 305255
247.0806427 8141.2006835938
247.0973663 293242.15625
261.1130981 32800.94921875
262.1208496 796405.6875
289.8045654 5792.6171875
331.1392517 20391.87890625
331.1503601 17002.556640625
331.19104 3136966

NAME: Xanthohumol C
msLevel: MS2
RETENTIONTIME: 15.4177016666667
centroided: TRUE
PRECURSORMZ: 351.1232
precursorCharge: 1
TITLE: msLevel 2; retentionTime 925.0621; scanNum NA; scanIndex 0; precMz 351.1232; precCharge 1
SMILES: CC1(C)C=Cc2c(cc(c(C(=O)/C=C/c3ccc(cc3)O)c2O)OC)O1
FORMULA: C21H20O5
Num Peaks: 35
47.60059738 4731.705078125
56.46577835 4517.3481445313
60.86152649 5159.34375
65.0031662 13648.4404296875
72.48275757 5297.7475585938
85.05272675 5035.1313476563
103.3006439 4843.583984375
119.0206985 7526.7685546875
119.0357666 11377.6484375
119.0389328 33486.70703125
119.0500183 4354751.5
119.05896 20325.583984375
119.0612793 31814.44921875
119.0823822 7013.2563476563
131.0499573 33219.046875
136.9875946 24980.0546875
145.0290222 31379.435546875
155.6561127 5129.5483398438
157.0656281 8445.86328125
163.0763092 54568.96484375
172.0528259 10652.1318359375
187.0763397 20120.142578125
188.0473785 8703.8876953125
197.6879272 5949.0908203125
199.0399017 9702.8515625
205.0862579 11893.0361328125
216.0425568 28007.328125
231.054184 3593.1765136719
231.0659943 301337.40625
245.0825348 6387.3999023438
254.9443054 4978.720703125
319.0979919 7102.3237304688
333.90271 5716.9619140625
351.0679626 11195.662109375
351.1233826 2073155

NAME: Xanthohumol E
msLevel: MS2
RETENTIONTIME: 15.4333466666667
centroided: TRUE
PRECURSORMZ: 405.1701
precursorCharge: 0
TITLE: msLevel 2; retentionTime 926.0008; scanNum NA; scanIndex 0; precMz 405.1701; precCharge 0
SMILES: CC(=CCc1c(c2C=CC(C)(C)Oc2c(C(=O)/C=C/c2ccc(cc2)O)c1O)O)C
FORMULA: C25H26O5
Num Peaks: 35
43.43531036 2272.6770019531
45.01942444 11114.0302734375
47.99637985 2426.15234375
56.77863693 2714.2014160156
65.00315857 3369.7463378906
67.60118103 2803.9243164063
74.58630371 2454.6284179688
75.31551361 2780.3725585938
79.97629547 2584.6520996094
93.03436279 3723.0314941406
107.0500107 3473.001953125
109.0660553 3903.169921875
110.8552704 2530.1223144531
119.044632 5080.3999023438
119.0501099 160736.765625
119.055748 5134.0581054688
128.6742401 2740.1081542969
133.0656281 13376.544921875
145.0294189 5499.9858398438
152.7533264 2888.85546875
159.0444489 2470.630859375
187.0401001 6640.6508789063
213.1291351 2608.1638183594
217.1231079 7380.353515625
229.9064941 2164.3374023438
239.7689514 2829.8862304688
241.1230469 16674.033203125
257.1179199 2300.8344726563
285.0924072 3976.591796875
285.1130371 94649.7265625
285.1289368 1899.9713134766
299.1282654 11094.38671875
350.964386 2555.2971191406
405.1702881 264431.84375
405.2054443 4020.6059570313

NAME: LUP26 (Lupulone H isomer)
msLevel: MS2
RETENTIONTIME: 15.4420683333333
centroided: TRUE
PRECURSORMZ: 401.2328
precursorCharge: 0
TITLE: msLevel 2; retentionTime 926.5241; scanNum NA; scanIndex 0; precMz 401.2328; precCharge 0
FORMULA: C24H34O5
Num Peaks: 30
42.00481033 2502.4172363281
43.33445358 2277.1513671875
44.58184814 5125.5390625
45.73162079 2254.6120605469
46.87113953 2711.9880371094
50.05914688 2438.9831542969
60.89232635 2319.5021972656
61.91843033 2557.4602050781
62.35756302 2219.8298339844
65.98246002 2525.5341796875
68.43037415 2380.0776367188
71.44029999 2414.4294433594
103.6450577 2113.3361816406
129.9759979 3485.8957519531
181.0177002 2482.2312011719
186.487442 2256.2495117188
200.3041534 2421.9877929688
205.0502777 8400.4814453125
231.0660553 14029.4775390625
264.0988159 2786.8688964844
268.7357788 2510.1486816406
273.112854 28105.58203125
277.1086426 6630.3447265625
289.1078796 41138.08984375
315.160675 11922.955078125
317.1400146 3887.0051269531
332.1628418 12379.9755859375
333.1970825 4632.1586914063
401.1990051 4678.2172851563
401.2331848 142072.96875

NAME: Prehumulinone
msLevel: MS2
RETENTIONTIME: 15.4450966666667
centroided: TRUE
PRECURSORMZ: 391.2121
precursorCharge: 1
TITLE: msLevel 2; retentionTime 926.7058; scanNum NA; scanIndex 0; precMz 391.2121; precCharge 1
SMILES: CC(C)CCC(=O)C1=C(C(CC=C(C)C)(C(C(=O)CC=C(C)C)(C1=O)O)O)O
FORMULA: C22H32O6
Num Peaks: 69
42.28384399 2279.6750488281
43.46850204 6903.2260742188
49.9246254 2407.5751953125
57.03448105 5329.1015625
62.01182938 2611.2541503906
71.50441742 2530.6613769531
72.55069733 2877.0048828125
78.46322632 2348.5676269531
95.05001068 7008.5502929688
96.02176666 5441.169921875
109.065712 4490.1313476563
110.0007095 4282.7670898438
111.0814133 8503.9951171875
113.0606537 3287.1135253906
113.0970383 28289.58203125
115.0761642 13869.525390625
121.0656509 8767.259765625
124.0526581 3040.7124023438
125.0609665 4962.7709960938
127.0764923 4879.4409179688
137.0246887 3205.4995117188
137.0609131 3242.83203125
139.0135651 2710.8701171875
139.0762787 128047.8125
139.3593597 2537.9675292969
141.0555573 46122.45703125
151.0761566 3780.1176757813
153.0918579 2747.8161621094
155.071106 5624.0336914063
165.0188141 3976.7158203125
165.0557861 11332.91796875
167.0711365 2954.4943847656
179.0350647 8764.654296875
179.0713196 10102.962890625
180.0792694 2746.8950195313
182.0218658 3084.8828125
185.2506561 2548.5817871094
195.0300446 4013.9194335938
195.138916 11188.119140625
206.0944061 5212.9672851563
207.0298309 24046.900390625
207.0666809 3114.8029785156
209.0820618 4026.890625
219.1391296 3896.4025878906
223.1341248 2492.7016601563
225.076416 3923.0063476563
226.6791992 2757.7817382813
234.0894318 3302.7470703125
237.1494598 96047.375
239.1510468 2349.0727539063
249.1487885 6890.3256835938
250.0845795 42452.96484375
253.0718689 2889.2124023438
257.1183167 3919.76171875
263.1283875 5979.9755859375
275.1283875 12646.9462890625
277.1443176 92124.6640625
277.1634521 2922.2900390625
293.1390686 2858.7175292969
295.1550598 8593.7373046875
301.1437073 3077.8703613281
304.131012 6911.0810546875
322.1421509 52624.20703125
373.2010498 5335.5942382813
391.1793823 6232.4189453125
391.2123718 152577.609375
391.2455139 4316.4453125
407.3860474 2631.4577636719
413.3726196 2501.6918945313

NAME: dihydrohumulinone
msLevel: MS2
RETENTIONTIME: 15.53297
centroided: TRUE
PRECURSORMZ: 379.2121
precursorCharge: 1
TITLE: msLevel 2; retentionTime 931.9782; scanNum NA; scanIndex 0; precMz 379.2121; precCharge 1
SMILES: CC(C)CCC(=O)C1(C(=O)C(=C(C1(CC=C(C)C)O)O)C(=O)CC(C)C)O
FORMULA: С21H32O6
Num Peaks: 41
40.6092453 2559.6469726563
46.36222076 2351.3081054688
49.77535629 2366.8327636719
59.10703278 2321.4064941406
71.05032349 3295.3166503906
71.34907532 2212.3608398438
90.10403442 2343.1015625
95.04998016 5912.8969726563
99.08142853 29660.37109375
101.0607605 8499.5703125
104.7143707 3197.3083496094
110.8708038 2422.0866699219
111.0816422 4844.8432617188
115.0765686 7048.1108398438
121.0661011 3789.7612304688
123.4938736 2228.8405761719
125.0607376 14574.4619140625
127.0767975 2707.0512695313
129.0923157 7725.7133789063
139.0762482 40673.73046875
141.0555267 22114.830078125
141.0920105 8706.1181640625
165.0556641 9619.306640625
181.1233978 7984.783203125
195.1405487 2617.0146484375
211.1336975 2396.9675292969
213.7525177 2185.6960449219
223.1337585 74641.3671875
225.1494598 6605.6323242188
226.6721802 3279.9140625
228.7952423 2357.1459960938
238.0838776 2946.1506347656
249.1142731 3794.9929199219
253.1447754 4472.271484375
263.128479 33442.66796875
265.1456909 6830.6762695313
277.1445007 11334.126953125
311.1685791 3188.998046875
355.3760376 2808.39453125
361.2023621 6607.8061523438
379.2123413 76415.4140625

NAME: posthumulone
msLevel: MS2
RETENTIONTIME: 15.5834766666667
centroided: TRUE
PRECURSORMZ: 333.1701
precursorCharge: 1
TITLE: msLevel 2; retentionTime 935.0086; scanNum NA; scanIndex 0; precMz 333.1701; precCharge 1
SMILES: CCC(=O)C1=C(C(=C(C(CC=C(C)C)(C1=O)O)O)CC=C(C)C)O
FORMULA: C19H26O5
Num Peaks: 77
45.61111069 9415.580078125
63.70601654 9624.4755859375
65.84983063 7777.630859375
66.02587891 9893.4921875
71.20571136 8665.0400390625
76.56678009 7977.3940429688
81.31099701 8501.900390625
97.02945709 25542.486328125
107.0501556 12086.7705078125
120.8548584 9189.80859375
121.0656052 10457.66015625
122.0594711 8635.1904296875
125.0607529 39606.0703125
135.0814209 10840.271484375
137.0241547 16513.96484375
146.6431885 9906.25
151.0033417 11789.1796875
151.0399017 244300.453125
151.0476837 10608.046875
152.0477142 63362.8671875
163.0400543 8971.3974609375
163.0758057 8063.7719726563
164.0117645 10787.9365234375
164.0480499 10209.8173828125
165.0193481 25293.08984375
165.055603 18367.69140625
167.0346375 21516.126953125
168.0064392 19846.1328125
168.0428162 12769.146484375
175.0397034 27688.330078125
178.0263672 12909.48828125
179.0346985 454113.84375
180.0427094 29320.765625
181.0408783 13965.205078125
181.050415 182405.09375
190.0633392 9942.453125
193.0137177 22528.953125
193.0503235 1162199.75
196.0374908 148238.46875
203.0345612 14376.2822265625
203.0707245 20179.255859375
207.0298615 9147.32421875
207.0660095 43191.29296875
208.0373993 26723.505859375
208.1101379 96969.3828125
209.0452118 365350.46875
219.1023102 13300.0556640625
221.0452271 1901490.5
221.0678101 13968.6005859375
221.0814819 206289.453125
223.0980377 8708.513671875
231.0655518 20322.099609375
233.9063263 8292.654296875
235.0605164 22261.62109375
235.097168 27805.326171875
236.0685577 14895.8662109375
236.1049042 27226.0234375
245.082428 13621.3193359375
246.090271 16916.279296875
247.0969543 31303.955078125
249.0766907 154530.125
259.1679688 8023.03515625
263.0924683 41228.96875
264.0010681 9408.037109375
264.0516968 14715.966796875
264.0628052 41192.2890625
264.0704956 27500.263671875
264.099823 7186169
264.1292419 50255.20703125
264.1368103 57951.359375
264.1470642 14976.1005859375
282.4196777 8015.4624023438
282.4400635 9403.5703125
315.1591187 68688.4609375
317.6975403 8648.8330078125
333.1704712 2207002.25
333.1900635 41871.1328125

NAME: Hydroxylupulone
msLevel: MS2
RETENTIONTIME: 15.6556533333333
centroided: TRUE
PRECURSORMZ: 429.2637
precursorCharge: 1
TITLE: msLevel 2; retentionTime 939.3392; scanNum NA; scanIndex 0; precMz 429.2637; precCharge 1
SMILES: CC(=CCC1(CC=C(C)C)C(=O)C(=C(C(CC=C(C)C)(C1=O)O)O)C(=O)CC(C)C)C
FORMULA: C26H38O5
Num Peaks: 62
40.34544754 2937.6169433594
45.59309387 2254.044921875
45.626194 2593.5026855469
47.69651413 20907.2734375
48.52635193 3055.5366210938
50.27157211 2304.1225585938
52.20998764 2212.6125488281
54.81458282 2580.9521484375
61.52555847 2478.9111328125
72.25726318 2712.1591796875
79.05500793 2796.65625
91.96852875 2661.6037597656
125.0606461 8013.4306640625
130.9125366 2427.1467285156
133.9492798 3101.3432617188
137.0242157 4225.8374023438
141.0557404 3382.8383789063
149.0244751 14224.9677734375
152.0114136 4460.2827148438
173.0972443 2895.9533691406
189.164917 3026.2236328125
201.1278992 3015.0698242188
203.070816 3116.7136230469
205.0869293 15114.4287109375
217.0867767 88089.015625
220.0726624 2758.7106933594
223.7984009 2809.7924804688
224.0692596 14454.880859375
225.1438904 2693.2834472656
231.0658875 4040.7731933594
235.0963745 2988.634765625
237.0758514 5946.3876953125
243.0657349 4762.2705078125
245.0819855 7454.740234375
245.1175842 9322.607421875
249.076416 61611.48828125
259.0975647 2879.9299316406
259.134491 5200.0473632813
260.1407776 6969.3051757813
261.1125793 3675.8107910156
269.1181335 5417.6557617188
275.1287231 7679.3544921875
277.1077576 3292.9445800781
287.128479 7722.3251953125
289.1435242 18867.498046875
291.1225891 3395.791015625
292.1314697 23970.40625
299.1280518 7814.1118164063
303.1228943 7782.2275390625
303.1600037 7759.6811523438
305.1394348 29427.328125
317.1392212 307564.28125
329.1748047 7275.9370117188
329.211792 31971.455078125
343.1900024 6151.798828125
345.1708374 13178.173828125
359.185791 3731.9296875
360.1938171 39008.921875
361.2017822 49154.48046875
411.2545471 3268.5993652344
429.2353821 14781.4833984375
429.2640686 528253.5625

NAME: 6-Geranylnaringenin
msLevel: MS2
RETENTIONTIME: 15.7125016666667
centroided: TRUE
PRECURSORMZ: 407.1861
precursorCharge: 1
TITLE: msLevel 2; retentionTime 942.7501; scanNum NA; scanIndex 0; precMz 407.1861; precCharge 1
SMILES: CC(=CCC/C(=C/Cc1c(cc2c(C(=O)C[C@@H](c3ccc(cc3)O)O2)c1O)O)/C)C
FORMULA: C25H28O5
Num Peaks: 49
45.24334717 19384.701171875
54.31587219 2351.9904785156
54.6055603 2487.4255371094
61.65380478 2869.8813476563
63.02390671 6798.9125976563
65.00319672 23762.251953125
68.99833679 2463.9409179688
85.40645599 2370.1787109375
93.03443146 11930.978515625
109.8589401 2565.3205566406
113.5720139 2495.521484375
119.0500488 167659.8125
119.0556946 3217.8002929688
124.2595367 2463.0185546875
127.5548477 2236.7980957031
137.0244598 5249.4594726563
140.1320343 2455.5637207031
148.0162659 5365.8833007813
163.0034027 12539.2236328125
166.0781403 2592.435546875
175.0401459 2905.6879882813
176.011322 24462.740234375
177.0190277 4205.5078125
177.1280975 11385.8369140625
190.0633698 6895.232421875
198.0587921 2954.4865722656
199.1490021 4822.3325195313
201.1282349 40684.8515625
217.0500488 2912.2016601563
217.1240997 2722.7563476563
218.0581207 7648.4125976563
219.138855 20252.46484375
223.8400879 2765.9533691406
232.0737305 2939.5783691406
236.3754883 2699.3386230469
243.1388855 12694.26953125
249.201004 2318.2248535156
259.133728 5158.1596679688
261.1489563 2944.7788085938
263.1279602 2917.0373535156
283.0609741 9718.94140625
287.1286011 150981.546875
287.1444702 2582.3940429688
301.1435547 8948.3828125
313.1437988 10616.5341796875
318.2484436 2599.6352539063
339.1976013 2954.6394042969
389.2581482 2717.6252441406
407.1858521 458597.625

NAME: linear lupulone E
msLevel: MS2
RETENTIONTIME: 15.74907
centroided: TRUE
PRECURSORMZ: 415.2482
precursorCharge: 1
TITLE: msLevel 2; retentionTime 944.9442; scanNum NA; scanIndex 0; precMz 415.2482; precCharge 1
SMILES: CCCC(=O)C1=C(C(=C2C(CC=C(C)C)(CC(C(C)(C)O)O2)C1=O)CC=C(C)C)O
FORMULA: C25H36O5
Num Peaks: 98
45.90571594 16705.095703125
46.13787842 63029.015625
46.13928986 362237.09375
48.37683868 20821.990234375
59.33826828 17943.94921875
62.14310074 19137.984375
81.25534058 20221.029296875
84.10812378 20803.44140625
87.04515839 21409.494140625
103.1590271 16875.716796875
103.4608917 17758.115234375
104.9248886 16849.681640625
104.9293442 18497.966796875
109.0658875 30760.361328125
111.0408478 24395.52734375
111.0449677 130135.2109375
133.0659943 20753.26171875
135.0817566 22605.603515625
137.3588409 20015.048828125
143.3888092 21306.9453125
146.0570221 18252.607421875
151.0765686 31385.197265625
152.0112915 90952.1015625
159.6481781 16618.103515625
166.0638885 18831.09765625
175.1117859 28350.5390625
176.0110931 19075.25390625
177.127655 25406.40234375
189.0917969 19465.337890625
189.6782074 17951.556640625
191.0711823 23068.466796875
193.0858917 19229.541015625
194.0582581 277684.78125
195.0667725 89009.3515625
197.7039795 17442.212890625
203.0339966 17795.494140625
205.0863037 22930.384765625
207.0659943 201389.75
213.8519745 18040.669921875
217.0865631 103328.8125
217.1243286 20249.240234375
219.0552063 16580.87890625
219.0659637 1215411.375
219.0797272 41940.2890625
219.1389771 46430.1328125
221.0824127 27543.125
226.6745605 27303.10546875
231.0659637 42837.0546875
232.0740051 22714.416015625
233.0818329 122263.703125
241.1233521 26184.640625
243.0661011 68923.5234375
243.1391754 77224.125
245.0823059 29137.970703125
245.1178436 131046.4140625
247.0975189 84863.078125
247.1330872 29151.537109375
248.1048584 36464.1875
255.1035461 18784.673828125
259.0971985 24494.16015625
259.1339111 73530.2265625
261.1129761 123318.8359375
262.1210938 320764.125
263.1286926 501815.03125
269.1177673 100512.1015625
271.1694641 27213.138671875
272.1063232 29847.853515625
273.1131592 422647.125
273.1314697 33897.62109375
274.1212463 29595.3046875
275.1286926 447798.21875
276.1357727 29927.3515625
278.115509 48799.421875
285.1129761 94840.71875
285.1853943 43056.24609375
287.1286011 4977993
287.1616516 19337.7890625
287.1703186 34038.5546875
289.144165 69410.7578125
291.1239624 149797.515625
302.1893921 43163.66015625
303.1235657 1195058.75
315.1599121 359018.125
316.1683655 50442.3359375
318.1828003 26796.95703125
329.1756592 631119.5625
330.1833191 388539.5625
331.1552734 74309.6953125
331.1920166 27735.482421875
345.1706848 33892.4296875
346.1785889 249325.90625
347.1856384 23474.044921875
363.2220154 22208.4921875
371.2579651 116676.09375
415.1549072 25492.4296875
415.2484131 9335654
415.3216248 70245.46875
416.2495422 26235.400390625

NAME: linear hulupone
msLevel: MS2
RETENTIONTIME: 15.8500883333333
centroided: TRUE
PRECURSORMZ: 331.1912
precursorCharge: 1
TITLE: msLevel 2; retentionTime 951.0053; scanNum NA; scanIndex 0; precMz 331.1912; precCharge 1
SMILES: CCCCC(=O)C1C(=O)C(=O)C(CC=C(C)C)(CC=C(C)C)C1=O
FORMULA: C20H28O4
Num Peaks: 40
41.71937561 2393.4301757813
54.29135513 2457.6450195313
65.29338837 2185.0002441406
82.00595856 3218.7009277344
101.9471664 2398.8395996094
101.9818497 2134.6411132813
104.9291 3304.0402832031
107.5398254 2246.0866699219
109.066124 2312.7734375
110.000824 4461.6215820313
118.2637405 2274.8112792969
124.0163727 3490.6320800781
125.0605469 17729.13671875
132.9346619 2331.3466796875
133.0657654 11345.380859375
138.0320892 4417.4951171875
151.0402222 2647.1376953125
159.3642731 2362.0170898438
160.7403717 2526.7045898438
166.0632935 46812.61328125
178.0632477 9096.5048828125
179.0354004 2375.1066894531
191.0710907 8601.09375
194.0581207 45662.80859375
205.0502777 34063.62890625
205.0868225 7706.50390625
207.0669861 4264.087890625
219.0662079 23103.396484375
219.102417 26940.708984375
233.0812836 9542.6328125
233.1170654 2871.9663085938
234.1259613 24613.517578125
247.0973969 26178.3984375
259.7172546 2307.0546875
261.1127014 3709.1008300781
262.1208496 73920.7109375
276.1893921 2753.7111816406
281.1123657 2455.0393066406
313.1798401 3967.8813476563
331.1912842 319965.75

NAME: hydroxyprelupulone
msLevel: MS2
RETENTIONTIME: 16.0338866666667
centroided: TRUE
PRECURSORMZ: 443.2795
precursorCharge: 1
TITLE: msLevel 2; retentionTime 962.0332; scanNum NA; scanIndex 0; precMz 443.2795; precCharge 1
SMILES: CC(C)CCC(=O)C1=C(C(CC=C(C)C)(C(=O)C(CC=C(C)C)(CC=C(C)C)C1=O)O)O
FORMULA: C27H40O5
Num Peaks: 88
40.55381393 2578.4887695313
40.71199799 2731.4230957031
41.57926178 2851.1936035156
41.68716812 2276.4958496094
43.28513336 2605.3972167969
44.66428375 2429.1970214844
46.81977844 2488.896484375
49.25243378 6917.7895507813
49.25399017 27441.935546875
57.03452301 2918.1669921875
57.55831909 3329.2272949219
63.33626938 3185.8735351563
70.91690826 2452.6408691406
71.95147705 2627.63671875
75.58016968 2569.9462890625
76.06811523 2843.8837890625
79.3787384 2249.5307617188
83.05032349 2919.7866210938
89.11186981 2807.7448730469
96.57843781 2536.0930175781
98.00104523 5318.107421875
100.098732 2560.2421875
125.0609512 9497.8779296875
137.0244751 3340.7233886719
149.0243988 9333.015625
149.0973969 2882.1369628906
152.0113831 7248.3989257813
155.071106 4354.6704101563
166.0271454 5426.55078125
173.0976257 3546.8325195313
174.0318604 2911.9755859375
175.993103 2638.6047363281
179.8577576 2744.6118164063
180.0428772 2534.4919433594
192.0791168 3701.0522460938
203.0713654 3990.0144042969
205.0867004 14485.83984375
210.0539093 5306.2172851563
217.050354 4287.1245117188
217.0868073 78239.6015625
217.1598816 4303.4155273438
226.6725769 4526.505859375
229.0865784 6384.4506835938
233.0808258 3797.3791503906
238.0848389 25514.470703125
243.0659027 7181.8500976563
245.081665 15895.662109375
245.1179047 5197.5434570313
247.0970459 12100.5283203125
251.0920258 20788.654296875
251.1286011 12855.755859375
259.09729 5633.599609375
259.1340637 4619.6171875
260.1417236 3219.8154296875
263.0922546 109624.5859375
271.0978088 7852.2973632813
273.1130066 3961.4692382813
275.0905151 2452.8779296875
275.1296082 4226.6279296875
279.1239624 7726.1352539063
285.1503296 3109.5246582031
285.2221069 3702.1477050781
287.1294861 8250.1318359375
287.1660461 4017.1789550781
289.1447449 23658.74609375
291.1237183 10574.134765625
301.1436157 6231.4936523438
303.1600037 5220.0952148438
305.1395874 4374.5180664063
306.1470947 39984.42578125
313.144043 6549.69140625
315.1600342 23550.77734375
317.1391602 22046.154296875
319.1551819 64870.21875
329.2124023 23507.28125
331.1548767 610401.0625
343.1926575 3965.7412109375
346.2149658 3771.1518554688
359.1859741 33063.50390625
373.1996155 12127.4814453125
374.2095337 53846.0234375
375.1810913 72469.671875
375.211731 2972.1928710938
399.290741 3349.9877929688
443.2019348 3307.4565429688
443.2140503 3831.7062988281
443.2511597 26533.509765625
443.2798157 780637.375

NAME: 5'-Prenylxanthohumol
msLevel: MS2
RETENTIONTIME: 16.1221116666667
centroided: TRUE
PRECURSORMZ: 421.2015
precursorCharge: 1
TITLE: msLevel 2; retentionTime 967.3267; scanNum NA; scanIndex 0; precMz 421.2015; precCharge 1
SMILES: CC(=CCc1c(c(CC=C(C)C)c(c(C(=O)/C=C/c2ccc(cc2)O)c1O)OC)O)C
FORMULA: C26H30O5
Num Peaks: 34
41.89732361 2754.8898925781
42.2071991 2650.6188964844
46.80070496 8691.037109375
51.97483826 2219.6774902344
65.00337219 4108.2705078125
68.42803192 2337.0798339844
78.33209229 2190.3513183594
84.60793304 2540.9704589844
95.16080475 2661.4201660156
97.02923584 3332.7783203125
119.0446014 3628.3115234375
119.0501175 148065.640625
119.0557632 3508.3020019531
121.0290298 2531.4040527344
145.0291748 3866.0905761719
148.9369812 2626.2163085938
149.0608521 2992.7780761719
159.0814972 2822.4975585938
163.0037689 3547.7858886719
171.9245911 2318.1042480469
173.0605316 7246.2758789063
177.0198822 2649.1381835938
178.0638733 2364.1652832031
201.1288605 8913.7880859375
203.0707855 3388.2514648438
212.0901947 2559.3598632813
217.050354 37996.625
231.0662079 9907.9912109375
233.1546173 7496.8994140625
257.1546326 7192.236328125
276.7114258 2685.7141113281
301.1445618 60874.41796875
337.1078491 21892.3359375
421.2018127 238161.921875

NAME: XAN26
msLevel: MS2
RETENTIONTIME: 16.1586416666667
centroided: TRUE
PRECURSORMZ: 475.2481
precursorCharge: 1
TITLE: msLevel 2; retentionTime 969.5185; scanNum NA; scanIndex 0; precMz 475.2481; precCharge 1
FORMULA: C30H36O5
Num Peaks: 87
40.34751511 3843.9196777344
43.2132988 2504.0883789063
45.2495842 3438.080078125
45.94832611 2432.3879394531
52.80600357 20801.0546875
53.6093483 2485.8232421875
65.00315857 27651.87109375
66.64090729 2809.7319335938
68.99815369 3399.8425292969
70.96385956 3105.7351074219
83.01403809 3493.6062011719
85.34188843 2967.7849121094
93.03445435 12446.73828125
94.22714996 2589.5539550781
98.00112915 3580.1743164063
109.0655899 2903.876953125
119.0500488 546912.9375
124.0161972 4297.8286132813
125.7119064 3254.9934082031
129.0557861 3269.6640625
130.770462 2761.6977539063
132.7402344 3342.5407714844
133.0658112 45991.5
145.0286865 3409.595703125
149.9953461 3748.6806640625
159.0443115 3086.7041015625
162.0684662 5372.8349609375
163.0038452 5799.8051757813
163.0763092 2783.9353027344
171.0815277 3360.689453125
175.0032349 9659.1123046875
175.0398254 4458.3842773438
187.0760651 5343.5078125
189.0557098 5367.9028320313
190.0633545 9877.396484375
192.0791168 3928.7543945313
199.0761566 14547.6796875
200.0479126 5198.1274414063
201.0552063 10570.572265625
203.0355835 4399.5561523438
203.070694 8329.75390625
207.0658569 13211.2109375
214.3313599 2521.4387207031
215.0713043 20845.451171875
217.0503082 4998.9780273438
217.086853 8107.2998046875
217.1233521 6351.9365234375
218.0579834 29780.439453125
219.1391296 2982.1391601563
225.0566254 3161.3051757813
227.1070709 3154.3344726563
228.0783844 4271.9326171875
229.0505219 12919.162109375
229.0864105 19973.5390625
229.1233368 3444.5708007813
231.0659637 53033.9921875
232.0741882 5780.9379882813
241.0500336 5647.0092773438
243.0660095 262540.25
243.102066 66215.71875
245.0812531 9844.8798828125
257.0817261 46069.40234375
257.1177673 5535.185546875
258.1253967 8804.630859375
260.1411438 4709.7446289063
267.0030823 3001.2795410156
269.0813904 4493.7456054688
271.0975647 24439.716796875
271.1343689 4240.140625
285.1129761 10189.6025390625
286.1208496 177259.546875
287.1280518 9334.5029296875
295.0610046 5233.6088867188
299.1287537 6566.8618164063
300.1368408 30642.97265625
311.2012634 25184.66796875
329.2113953 10161.1630859375
338.1159363 5571.6215820313
351.1238098 10702.6015625
355.1912231 344058.6875
355.2130737 2865.7685546875
363.1235962 50965.36328125
381.2066956 5319.6743164063
390.2864075 3042.1796875
406.1775818 24994.333984375
475.248291 493528.3125
486.1582642 2798.4291992188

NAME: Colupox a
msLevel: MS2
RETENTIONTIME: 16.25062
centroided: TRUE
PRECURSORMZ: 415.2484
precursorCharge: 1
TITLE: msLevel 2; retentionTime 975.0372; scanNum NA; scanIndex 0; precMz 415.2484; precCharge 1
SMILES: CC(=CCC1(CC=C(C)C)C(=C2CC(C(C)(C)O)OC2=C(C(=O)C(C)C)C1=O)O)C
FORMULA: C25H36O5
Num Peaks: 64
46.13790131 11359.271484375
46.13933945 42765.37890625
51.66447067 2527.4099121094
65.1913147 2985.4321289063
85.78721619 3180.3149414063
103.6463852 2390.3264160156
104.633728 2763.9797363281
109.0659485 3002.7731933594
111.0450211 25714.77734375
135.0818939 4375.7392578125
150.032074 3433.4711914063
165.0550842 2486.9025878906
169.6696014 2683.3645019531
171.239151 2751.203125
175.0401917 10822.90625
177.0194092 9738.8818359375
201.0198975 3340.2006835938
203.0717926 3544.3041992188
205.0861359 2965.115234375
215.070694 4598.1352539063
217.0872192 8076.578125
219.06604 66285.3125
220.0743866 4225.8857421875
227.0722198 5954.5185546875
231.0662537 19884.1796875
231.1034851 3138.7290039063
233.0821075 16819.1953125
233.7775269 2721.7333984375
236.0686951 16270.9677734375
241.12323 5867.3251953125
243.0661316 5023.9643554688
243.1391144 11677.0263671875
245.0649414 3314.9079589844
245.0686646 2074.7883300781
245.0816345 149311.765625
245.1184387 10122.8056640625
245.7355652 2604.2487792969
246.1265106 6449.02734375
259.0975647 3610.23828125
259.133667 5446.4794921875
261.077179 3651.1340332031
261.1122437 14396.923828125
263.0932007 3352.9204101563
264.1706238 2665.5788574219
269.1190186 6548.0947265625
273.1131897 38862.46484375
274.120636 5055.0732421875
277.1082458 5328.4018554688
278.1158142 25771.244140625
285.1126404 14563.7099609375
285.1856384 4897.6049804688
287.1286926 265968
288.1367493 8160.04296875
291.1236267 65445.15234375
303.1235962 358240.875
327.1609497 4420.130859375
329.1756592 85101.1171875
331.1549072 35852.73046875
345.1705933 18163.1328125
346.1782837 91311.9140625
347.1843872 2872.0373535156
371.2594604 3332.2712402344
415.1759644 9883.8984375
415.2484741 1185483.625

NAME: Lupulone D
msLevel: MS2
RETENTIONTIME: 16.258085
centroided: TRUE
PRECURSORMZ: 429.2637
precursorCharge: 1
TITLE: msLevel 2; retentionTime 975.4851; scanNum NA; scanIndex 0; precMz 429.2637; precCharge 1
SMILES: CC(=CCC1=C2C(CC=C(C)C)(CC(C(C)(C)O)O2)C(=O)C(=C1O)C(=O)CC(C)C)C
FORMULA: C26H38O5
Num Peaks: 114
45.40872955 37616.0625
47.69510651 125505.421875
47.69661713 649008
53.42448425 37196.5390625
80.60261536 42822.41796875
92.77471161 34487.59765625
99.08152008 36025.5703125
101.1158524 34153.87109375
114.1627731 38224.78125
118.9415283 34186.75
120.4896545 30518.626953125
123.0816727 39615.72265625
125.0607452 333736.8125
126.2298965 34189.31640625
128.5309601 36600.28515625
133.0657501 40093.890625
139.0489655 33734.6953125
147.5972748 31256.736328125
149.0245819 35931.18359375
149.0967865 63616.015625
152.0113068 281694.84375
163.0767212 52953.69140625
165.0914917 42897.125
166.0270691 45611.26953125
173.0970001 33288.4375
177.0190125 60707.328125
189.091568 38417.171875
190.0271301 101896.7109375
191.0712738 75206.3984375
191.1439209 76354.859375
193.0877228 52222.55078125
199.0757751 48356.23828125
203.0710297 75621.2421875
203.1433563 37758.09375
205.0511932 74495.2734375
205.0867004 88545.0546875
207.065918 39343.62109375
208.0738983 497695.59375
209.0816803 185165.21875
217.0872955 343571.09375
217.1225891 56686.95703125
219.0659027 47201.1640625
221.0817566 413364.78125
222.0898743 54850.859375
223.217392 35465.94140625
226.6687469 36021.78515625
230.058548 67380.8203125
231.0662689 81219.8046875
231.1385651 90143.359375
233.0816498 2651722.75
233.1177216 38772.90625
233.1547089 61127.07421875
234.0896606 58464.55859375
235.0978546 40502.06640625
241.1238098 61796.484375
243.0657196 167606.640625
243.1020966 60793.24609375
245.0819702 257759.859375
245.1179047 111211.640625
247.0972748 170509.984375
247.1337738 79654.5859375
257.1546326 142390.25
259.0969849 99384.3984375
259.1341248 328730.1875
261.1134949 303004.1875
262.1208496 102291.2734375
265.1428833 42392.41015625
271.0976562 34341.05078125
273.1125183 281140.1875
273.1495667 111151.8203125
274.1199036 54380.11328125
275.1282959 235258.765625
276.1365051 800780
277.1444397 1170581
283.1335449 135705.53125
285.1142883 34872.1953125
286.1201172 54166.25
287.1288147 863959.4375
287.2340393 38916.609375
288.1364746 58948.13671875
289.1442566 840414.75
290.1530762 62767.078125
292.1314392 162242.234375
297.1856689 43276.14453125
299.1286316 178738.6875
299.201416 118159.1640625
301.0992126 58860.69140625
301.1442566 9198649
301.2168579 52262.73046875
302.1498108 33405.80078125
303.1238403 68143.5234375
303.160614 88614.2265625
305.139679 273447.28125
315.158783 49049.62890625
315.1959229 40924.1328125
316.2048645 74026.7421875
317.1392517 2177963
317.1633606 72734.4921875
329.1754456 869046.3125
329.2022705 56767.90234375
329.211853 78116.2109375
330.1836853 135752.875
332.1994934 41256.71875
343.1912231 1331661.625
344.1990051 760190.125
345.1702271 226563.671875
345.2073975 101643.140625
359.1872559 46388.69140625
360.1936646 492598.15625
361.2021179 264107.78125
385.2377625 92761.46875
385.2737732 176403.609375
429.2640076 17050342
429.3399048 107887.765625

NAME: dihydroposthumulone
msLevel: MS2
RETENTIONTIME: 16.323775
centroided: TRUE
PRECURSORMZ: 335.1859
precursorCharge: 1
TITLE: msLevel 2; retentionTime 979.4265; scanNum NA; scanIndex 0; precMz 335.1859; precCharge 1
SMILES: CCC(=O)C1=C(C(=C(C(CC=C(C)C)(C1=O)O)O)CCC(C)C)O
FORMULA: C19H28O5
Num Peaks: 66
44.99261093 3134.3205566406
49.06555176 3262.2380371094
59.44812012 3276.6892089844
66.52973938 6761.3286132813
71.05005646 3720.8020019531
76.73252869 3762.2612304688
78.24839783 3592.7900390625
97.02945709 4035.7543945313
104.9687271 3075.1311035156
107.0503387 4122.603515625
107.5296173 3897.6677246094
109.0293961 4171.0649414063
109.0656967 4940.87890625
109.248909 3316.5358886719
123.0814972 4079.4323730469
125.024437 8617.283203125
125.06073 14359.5283203125
134.401825 3816.3781738281
137.0607605 7940.0927734375
151.0036469 9900.8466796875
153.0190887 5215.3916015625
163.0400696 14874.427734375
164.0474396 5869.7827148438
165.0194855 3571.1206054688
165.0556641 19021.1953125
167.0348816 9076.5712890625
177.0558319 4888.251953125
181.0143433 16604.048828125
181.050415 406443.625
181.0870667 5014.9838867188
182.0214844 8266.8193359375
191.0347443 8280.53515625
195.0298309 10150.982421875
195.06604 163560.671875
196.0374603 6034.4614257813
209.0453033 744556.3125
209.0812836 10666.564453125
210.0532684 132151.3125
211.9668121 3483.9328613281
221.1183319 12765.4521484375
222.1257935 5271.08203125
223.0609741 389522
223.0977478 14683.1689453125
226.6637573 4444.1572265625
226.6763306 3835.4140625
237.077301 9693.556640625
237.113266 4920.3955078125
238.0847015 13833.3076171875
239.1284332 7847.1015625
248.1049194 11215.142578125
249.1127777 8725.802734375
251.0927734 16705.990234375
254.9662628 3617.0827636719
261.149353 5505.5805664063
265.1083374 4795.2788085938
266.0218506 3257.6596679688
266.0780945 21564.005859375
266.086731 16867.421875
266.1155396 3226019.25
266.1455078 18055.173828125
266.1532593 24396.208984375
266.1740112 5128.8540039063
266.2222595 3031.3742675781
317.175415 35550.578125
335.1861877 965974.4375
335.2384338 5699.08203125

NAME: XAN27
msLevel: MS2
RETENTIONTIME: 16.3630683333333
centroided: TRUE
PRECURSORMZ: 477.264
precursorCharge: 1
TITLE: msLevel 2; retentionTime 981.7841; scanNum NA; scanIndex 0; precMz 477.264; precCharge 1
FORMULA: C30H38O5
Num Peaks: 107
40.57144165 16649.10546875
41.7256546 2474.3979492188
45.60823441 2636.1928710938
53.02999115 30656.802734375
53.26451111 3073.8012695313
53.65840149 2786.8884277344
54.48778534 2719.5307617188
68.5114212 2860.1188964844
69.00621033 2577.7060546875
76.02152252 2516.1259765625
83.01377106 10922.8974609375
90.40796661 3071.5461425781
93.03456116 19467.689453125
106.9245224 2627.8637695313
109.6881638 3159.7424316406
115.2180481 2381.3850097656
119.0501099 47155.890625
124.0163574 2753.9309082031
147.0813293 4885.0649414063
149.0239716 3245.0046386719
149.0969543 4599.2045898438
152.0113678 17897.3359375
162.0326233 3206.2092285156
165.0195465 4723.8359375
166.026947 8255.7685546875
172.7437286 2654.1174316406
173.2024689 2771.8793945313
175.0759888 4568.6030273438
177.019165 22284.458984375
179.0348206 10814.1806640625
189.0551758 12838.3486328125
190.026947 5570.1801757813
191.0237579 2832.6164550781
191.0348816 67658.3203125
191.0715485 4151.2514648438
201.0552368 3601.4458007813
203.0346985 4956.5283203125
203.0709991 9310.052734375
203.1074677 3626.7788085938
204.0422516 11508.10546875
204.3976593 3297.0981445313
205.0505219 4184.5268554688
205.0868988 8355.0654296875
211.3009033 2789.3688964844
215.1074066 9015.4462890625
217.0869141 42477.171875
217.1590729 3382.1359863281
219.0659027 6924.767578125
219.1023102 3189.4064941406
220.0740204 5336.73046875
226.675293 3588.6181640625
230.0588837 3664.5754394531
231.0663757 15501.056640625
231.1024475 9740.064453125
233.0818024 27335.494140625
234.0898438 8967.7783203125
241.087265 6074.3940429688
243.0657959 20671.900390625
243.1384735 3154.2854003906
244.0732574 3928.2624511719
245.0817413 81885.3671875
245.0979614 3934.3596191406
245.1164703 3865.4357910156
247.0973053 34222.140625
257.0806885 3271.9240722656
257.1547241 3785.7951660156
257.8769531 2769.2624511719
259.0973511 413842.65625
259.1260376 2832.8442382813
259.1333313 5278.3852539063
260.1413879 3663.8669433594
261.1508484 3865.2329101563
271.0976868 29711.19140625
272.068573 17741.712890625
273.1130676 8486.806640625
273.1485291 3025.7160644531
274.1576538 5380.9736328125
285.0762024 12445.2587890625
285.2228699 6431.1196289063
287.1293945 22071.20703125
288.1366577 13517.3583984375
297.0767517 72268.15625
301.1447144 24349.65234375
302.1515808 15242.234375
315.1600952 2885.4816894531
321.1517334 3056.9855957031
323.1289062 4942.1118164063
323.8007202 2622.2565917969
325.1081238 6084.1904296875
327.232666 9273.6337890625
329.2117004 5752.0297851563
339.123291 4913.3510742188
340.1312256 33197.140625
345.1691895 2731.9838867188
347.1295471 3708.4401855469
351.1233826 16070.9619140625
352.649353 2589.6689453125
353.1390991 65420.37109375
360.5063171 2661.0615234375
365.1391907 413551.84375
366.1433105 2786.3413085938
371.2225037 22949.982421875
393.1708374 25493.685546875
407.1860352 7841.3657226563
408.1941223 65820.078125
433.2736816 7597.0830078125
477.2641907 773200.3125

NAME: XAN21
msLevel: MS2
RETENTIONTIME: 16.3866216666667
centroided: TRUE
PRECURSORMZ: 441.2639
precursorCharge: 1
TITLE: msLevel 2; retentionTime 983.1973; scanNum NA; scanIndex 0; precMz 441.2639; precCharge 1
FORMULA: C27H38O5
Num Peaks: 28
44.2554245 2347.7214355469
46.25758362 2819.9025878906
49.02984238 5011.4541015625
57.03451538 2799.5446777344
58.22979736 2459.0390625
75.08648682 2614.3798828125
79.77284241 2509.6762695313
92.7329483 2255.0466308594
98.72381592 2400.5270996094
103.5211258 2245.7370605469
120.389534 2327.1052246094
191.0343628 4527.4384765625
225.7062683 2664.9409179688
236.0683441 2711.7512207031
243.0658569 3202.6481933594
259.0969849 15209.98828125
261.076416 11551.642578125
271.0973206 6879.3076171875
304.1322021 5374.7973632813
315.1602478 12079.53125
317.138916 8050.3110351563
329.1393127 71321.8671875
339.1962891 2950.8813476563
340.2025146 3181.5300292969
372.1940613 8280.07421875
384.1937256 4359.5043945313
441.2249451 3690.205078125
441.2640076 108497.0859375

NAME: LUP27
msLevel: MS2
RETENTIONTIME: 16.389635
centroided: TRUE
PRECURSORMZ: 429.1891
precursorCharge: 0
TITLE: msLevel 2; retentionTime 983.3781; scanNum NA; scanIndex 0; precMz 429.1891; precCharge 0
FORMULA: C24H30O7
Num Peaks: 138
40.13405991 14456.1572265625
43.57291412 2592.7885742188
45.84595871 3058.455078125
47.6951828 8200.8583984375
47.6966629 36341.03515625
48.33059311 2813.7543945313
48.49697495 2863.0307617188
50.31990433 2885.7124023438
53.33315659 2898.541015625
57.03457642 4566.6606445313
79.05525208 3100.55859375
84.69076538 2722.6333007813
88.89086914 3243.7907714844
89.8587265 3172.8666992188
96.02180481 5368.5688476563
98.0008316 3874.86328125
99.08154297 9879.27734375
103.5988922 2505.1472167969
103.6038513 3177.4636230469
103.7583923 2870.5495605469
107.0501404 3850.9555664063
111.0087662 3634.9626464844
112.3622131 3190.1586914063
113.0609055 3533.0717773438
121.0659256 4467.71484375
122.6415558 2860.7353515625
123.0813065 6423.0043945313
123.8640976 2878.1706542969
124.01651 5264.6884765625
125.0606766 49545.37890625
126.9334564 2716.1730957031
137.0971527 4210.9409179688
138.0322266 4559.572265625
138.0689545 3506.2119140625
139.076416 5800.7563476563
147.5368652 2859.416015625
149.024765 3450.5563964844
149.0966797 4217.3583984375
152.0111237 14960.4970703125
153.0193176 3724.4953613281
155.071228 4148.2294921875
161.0610504 3431.4865722656
163.0763702 21609.796875
164.0840149 4938.9814453125
165.0196228 3211.2265625
166.0634766 3520.5695800781
167.0710449 3969.00390625
175.0768127 4450.8403320313
179.0714111 14780.6875
179.3013153 3084.3896484375
180.0791779 22668.021484375
189.0561676 4663.6396484375
191.0711517 7011.3188476563
191.1441956 8543.9619140625
192.0796814 3690.6701660156
193.0501862 2915.6174316406
195.0660095 63236.375
196.0739441 87647.609375
196.0848541 5508.8310546875
196.3655243 2817.3110351563
201.12883 3031.4338378906
203.0719757 4494.865234375
203.144516 4719.3271484375
205.0874176 7859.5263671875
208.0739288 40094.5625
209.0819702 8710.8740234375
215.1430817 2961.4721679688
217.0865936 15138.7744140625
217.123703 3723.5104980469
219.0663757 7903.2490234375
221.0819702 25509.3359375
221.1543274 18655.044921875
223.0608826 34108.421875
229.1233215 3242.3100585938
231.0662994 8647.00390625
231.1383209 6084.9848632813
233.0817261 152521.375
233.1181183 2994.0415039063
235.1342773 10076.578125
236.0687103 65655.171875
241.1233521 6076.5795898438
243.0660706 6900.4965820313
243.1022034 9609.453125
243.1389618 5384.5620117188
245.0818939 12680.4111328125
245.1182404 5401.0952148438
247.097168 13545.681640625
247.1334686 43176.53515625
248.14151 8604.1796875
251.1291351 16117.6396484375
253.5885925 2971.9309082031
255.1382141 3449.4743652344
257.0809326 3354.5029296875
257.1546021 8426.0751953125
259.0975037 8673.7646484375
259.133667 28636.21484375
261.1131287 14527.1142578125
261.1483765 3972.4370117188
262.1202698 4125.4609375
265.1442871 100878.234375
272.1051941 2779.7387695313
273.1134033 4551.0356445313
273.1501465 8501.9248046875
274.1235962 3098.939453125
275.1286926 17012.24609375
276.1364746 37842.64453125
277.1445312 58558.11328125
283.133667 12478.0732421875
286.1212463 3456.7368164063
287.1289062 57715.7421875
289.1441345 54291.3671875
292.1108704 6437.796875
292.1315002 117353.109375
299.1285706 10391.490234375
299.2019043 8415.1982421875
301.1443481 570357.25
303.1224976 7151.037109375
303.1604004 4853.4985351563
305.1394348 10484.1806640625
315.1962891 3257.7465820313
316.2054443 4777.6533203125
317.1217346 2404.5380859375
317.1392517 135536.5
317.1632385 6007.916015625
317.2119751 4364.0249023438
329.1755676 48733.47265625
330.1837463 8047.0922851563
343.1912231 111695.3046875
344.1992493 34155.24609375
345.1705017 10666.5908203125
345.2069702 7142.0517578125
360.1194763 2893.9272460938
360.1940918 29889.798828125
361.2018738 456169.25
385.2748108 9119.828125
429.1916199 22464.134765625
429.235199 21219.431640625
429.2641602 977006.9375

NAME: XAN17
msLevel: MS2
RETENTIONTIME: 16.4025066666667
centroided: TRUE
PRECURSORMZ: 421.2015
precursorCharge: 1
TITLE: msLevel 2; retentionTime 984.1504; scanNum NA; scanIndex 0; precMz 421.2015; precCharge 1
FORMULA: C26H30O5
Num Peaks: 99
40.34740829 4604.537109375
40.4809227 3079.7788085938
45.14411163 3023.3483886719
46.80069351 64499.94140625
65.00318909 3239.1435546875
65.72662354 2808.916015625
68.99813843 8263.482421875
93.03464508 6147.4975585938
97.02939606 3986.0151367188
98.00083923 5129.0927734375
103.8608475 3037.0812988281
108.1353989 2809.3591308594
117.0346985 4830.0620117188
119.0500946 883018.9375
126.3159561 3310.5930175781
133.0657959 9471.2666015625
145.0295563 23901.0625
145.0658569 3424.6633300781
149.9957275 5163.7744140625
161.0240021 4625.373046875
161.0610046 2971.7580566406
161.8308868 4302.8598632813
163.003952 4323.3701171875
163.0394745 4327.0415039063
165.0918732 23925.05859375
166.2851562 3040.9663085938
171.0816956 4252.064453125
172.0890961 4308.7431640625
173.0607452 6696.4760742188
173.3887024 3393.2817382813
175.0036163 13346.349609375
175.0390778 5331.966796875
180.0619965 3137.9133300781
187.0397186 8925.908203125
187.076355 9484.4453125
188.0111084 3492.8195800781
189.0192871 5801.3305664063
189.0556183 9643.5595703125
189.09198 8480.4716796875
190.0632477 16517.740234375
199.0762787 20828.794921875
201.0555267 15325.9169921875
203.0344543 13303.6416015625
203.0713959 14659.068359375
207.0659332 11903.1005859375
215.0709839 29365.90234375
217.0506592 8188.1904296875
217.0868988 13461.4912109375
217.658783 2995.1728515625
218.0584259 28514.05078125
224.6012878 3080.5473632813
227.1075134 9526.572265625
227.1441345 5680.783203125
228.0434875 4295.5947265625
228.0784912 6476.9653320313
229.0502014 14906.828125
229.086792 15594.03515625
231.0661621 75858.453125
232.0740356 6931.681640625
233.1545715 61125.23828125
241.0508881 11771.19921875
243.0660706 281659.375
243.1017303 50004.140625
245.081955 8476.2783203125
255.1373596 3945.5495605469
257.0818787 61375.38671875
257.118103 8888.9794921875
257.1543274 16655.71484375
258.1259766 10878.0615234375
259.1330261 5512.84765625
269.0827332 5045.3623046875
269.1180725 3916.9875488281
271.0973206 30839.212890625
271.1340332 12386.001953125
275.1651306 4637.4951171875
285.1130371 23140.4453125
286.1208496 108572.953125
287.1289062 15353.0400390625
295.0614319 23615.912109375
299.12854 12076.3935546875
300.1371155 23456.634765625
301.1443787 234835.609375
309.1132202 3478.7485351563
315.1590576 12014.7177734375
321.1124573 13198.3154296875
335.1313477 3953.8720703125
338.1151428 14515.0390625
349.1080627 3933.2033691406
351.1235962 33169.9296875
363.1018677 2839.51171875
363.1236572 143953.09375
363.1521912 6795.2768554688
378.182373 4860.2001953125
391.155426 12126.0712890625
405.1702881 4931.5786132813
406.1786499 26264.021484375
421.1284485 8533.619140625
421.2016296 1592580.75
422.2037964 3372.5559082031

NAME: Cohumulone
msLevel: MS2
RETENTIONTIME: 16.4487716666667
centroided: TRUE
PRECURSORMZ: 347.1857
precursorCharge: 1
TITLE: msLevel 2; retentionTime 986.9263; scanNum NA; scanIndex 0; precMz 347.1857; precCharge 1
SMILES: CC(=CCC1=C(C(CC=C(C)C)(C(=O)C(=C1O)C(=O)C(C)C)O)O)C
FORMULA: C20H28O5
Num Peaks: 77
46.4239006 76222.59375
52.31106567 68114.765625
54.91332626 82651.53125
59.53244781 72881.09375
69.52774048 107706.46875
69.52993774 148638.53125
85.06568909 87394.546875
94.29720306 70591.984375
107.0501022 120084.03125
111.0452271 225882.15625
123.008522 105667.9375
125.0608215 467198.6875
135.0812988 339595.78125
137.0244141 92537.46875
139.0776672 81768.6328125
151.0034637 269720.28125
151.0401459 157062.875
152.9868469 80074.546875
153.0196686 84849.7109375
163.0767059 138398.71875
164.0116577 142475.171875
165.0189056 144390.28125
165.0554962 1821274.125
166.0632172 532256.5625
168.0061188 95748.484375
173.0604858 76400.2890625
179.0714874 208599.90625
181.0140076 107894.859375
181.0503998 192458.609375
182.0578461 168180.4375
189.0553894 243568.375
191.0713043 176591.703125
192.0060577 68317.546875
193.0142517 532946.6875
193.0504303 3606765.5
194.0579376 150550.0625
195.065918 1502005
205.0501862 102479.5703125
207.06604 11248867
210.0531769 1160292.625
214.5239868 70958.3515625
217.050705 163380.921875
217.0862122 100244.8046875
221.0450897 452022.90625
222.0525513 325903.5625
222.1256561 506827.21875
223.0611115 2722612.25
223.0749512 144916.6875
226.6647797 80224.546875
226.6773224 77254.921875
233.1179352 247460.859375
234.1261139 73331.5859375
235.0609131 17989992
235.0964203 1318425.375
236.068924 624053.25
236.2411804 70179.8125
237.1135712 93756.0390625
243.1026764 90218.2734375
245.0816345 178695.84375
249.112854 189688.890625
250.1205292 250555.484375
259.0967712 127876.921875
260.1054077 118081.328125
261.1134644 276991.03125
263.0924072 1149403.25
277.1077881 309211.8125
278.0531616 99189.9765625
278.0758972 420651.65625
278.0839844 470609.8125
278.115509 62949028
278.1477661 277075.15625
278.1558838 485931.15625
279.119812 78325.828125
301.1780701 69214.6953125
329.1751099 632714.3125
347.1861267 23115294
347.2415771 178180.875

NAME: XAN25
msLevel: MS2
RETENTIONTIME: 16.5597383333333
centroided: TRUE
PRECURSORMZ: 475.2482
precursorCharge: 1
TITLE: msLevel 2; retentionTime 993.5843; scanNum NA; scanIndex 0; precMz 475.2482; precCharge 1
FORMULA: C30H36O5
Num Peaks: 121
40.34745407 10710.619140625
52.80599594 28427.91796875
59.37950897 3181.1437988281
59.38735199 2774.2839355469
65.0032196 4086.8991699219
68.9980545 5789.4794921875
76.83808899 2707.7150878906
79.05536652 3325.6853027344
79.48995209 2685.0817871094
82.28726959 3039.666015625
83.01377869 4430.0874023438
90.28288269 2732.4799804688
93.03440094 7206.73828125
98.00088501 13872.6171875
100.3021545 2550.5288085938
101.6723785 2970.5002441406
110.0008926 3101.3569335938
115.1503067 2960.0778808594
119.044548 4920.9672851563
119.050087 192441.328125
119.0556793 4800.2583007813
123.4418716 2709.5322265625
124.0164108 2564.6530761719
131.0505371 3354.0500488281
133.0655823 8727.859375
135.0810547 3190.447265625
137.0242004 2657.3825683594
137.9957886 4958.35546875
145.029007 4968.6303710938
147.0451202 3633.9929199219
149.9957275 4368.4487304688
151.0033875 4429.8037109375
159.0448303 4774.8295898438
161.0246429 5476.7700195313
162.0683136 2749.5786132813
163.0036163 7807.09375
166.2218475 2686.2158203125
171.0809631 2958.6962890625
173.0606232 6259.9638671875
175.003479 16858.384765625
175.0396423 6703.8100585938
175.0766296 5104.2827148438
177.0194244 4253.970703125
185.0608063 4783.76171875
187.0398254 9953.9189453125
187.0770416 6041.0268554688
188.0117798 3611.9699707031
189.0190735 4397.1064453125
189.0549164 15041.9814453125
190.0634766 24474.568359375
191.0712128 4071.3344726563
197.060257 3877.4362792969
199.0759735 15019.3994140625
200.0473022 5839.5317382813
201.0554352 16530.484375
201.091629 3367.5900878906
202.0630341 3140.0568847656
203.0349579 11247.1943359375
203.0712738 12136.060546875
207.0661469 15559.51953125
215.071167 40530.30078125
215.1075134 3428.6374511719
217.050766 13633.404296875
217.0872345 6454.8178710938
218.0582123 49493.9921875
219.1386108 2765.8579101563
221.0814972 7612.3505859375
226.6774292 3396.078125
227.1073761 4338.8100585938
228.078537 5597.6577148438
229.0501709 18327.298828125
229.0868073 12861.75
229.1230011 7230.6508789063
230.0585175 5142.7817382813
231.0659485 73324.7421875
232.0736694 13332.9970703125
239.071701 3754.6938476563
241.0502472 19049.927734375
241.1226807 3950.3288574219
242.0583954 3762.9799804688
243.0431061 3962.3703613281
243.0659943 301578.75
243.101532 48117.11328125
243.1379852 4451.9379882813
245.0816345 15745.8818359375
255.138443 4942.5893554688
257.0816956 85254
257.117981 9890.9912109375
258.1260986 7746.478515625
259.1340027 5070.3334960938
269.0815735 7442.9692382813
270.0532227 8935.09765625
271.0974426 35619.25
271.1334839 15866.8759765625
272.1416931 3940.4567871094
283.0610962 7673.7006835938
283.0942078 2659.8190917969
285.1134949 21454.388671875
286.100769 4724.6811523438
286.1209412 97527.0859375
287.128479 29173.4453125
295.0611267 38195.3984375
299.1293945 22263.56640625
300.1366882 37971.19921875
310.1206665 4300.7397460938
313.1438599 4374.7788085938
321.1133118 2866.2873535156
337.1077576 6663.9560546875
338.1161804 34956.17578125
349.1078186 4732.6064453125
351.123291 31983.013671875
355.1914368 18251.376953125
363.1235046 273878.28125
378.1822815 6584.1865234375
391.1542358 12909.1142578125
392.5134888 3157.3344726563
405.1696777 8738.8779296875
406.150177 2118.8891601563
406.1782227 89463.40625
431.2581787 6933.982421875
475.2484131 760505.0625

NAME: Acetolupulone
msLevel: MS2
RETENTIONTIME: 16.7486333333333
centroided: TRUE
PRECURSORMZ: 371.222
precursorCharge: 1
TITLE: msLevel 2; retentionTime 1004.918; scanNum NA; scanIndex 0; precMz 371.222; precCharge 1
SMILES: CC(=CCC1=C(C(CC=C(C)C)(CC=C(C)C)C(=O)C(=C1O)C(=O)C)O)C
FORMULA: C23H32O4
Num Peaks: 70
41.24612808 320814.6875
41.24732971 2457936
56.68638611 107747.4921875
62.52125168 82574.6875
81.03443146 134196.78125
83.01374817 613721.25
86.30834198 104492.7890625
92.80708313 147377.375
107.0503082 166514.921875
133.0661163 137703.875
147.081665 141007.625
149.0971985 86396.53125
150.0328064 124721.890625
152.0114288 98061.8203125
152.7439117 81780.0859375
161.0968628 96913.1484375
161.8653717 81940.9609375
163.0405426 87491.1796875
166.0270081 2009024.25
173.0969086 143745
174.5982666 89990.78125
179.0346527 1320284.875
189.0913086 103332.125
191.0347748 7246992
191.0464325 126759.1796875
199.075882 200553.140625
203.0347137 134162.375
203.0713501 200528.59375
203.1076355 171494.65625
204.0424347 601102.0625
204.1584625 88835.1171875
205.0865631 363029.75
213.0905304 103583.8359375
215.0345764 166462.828125
215.107666 454958.40625
216.0423431 160861.09375
217.049942 125656.5625
217.0868835 2736989
219.0660706 705841.3125
231.0661926 157237.4375
231.1021729 383726.84375
233.0812378 248393.78125
234.0894928 3411027
241.0867615 167103.859375
243.0663757 675685.625
243.1389923 89689.515625
244.073761 694523.1875
245.0816498 1599853.5
245.1178741 134688.234375
246.0892334 191153.828125
247.0807343 120792.1796875
247.0973511 4983147
259.0971985 45533884
259.1335449 511293.5625
259.1699829 233013.140625
274.1570129 441757.15625
287.1088867 133321.640625
287.1287231 2748689
301.1442871 871729.125
302.1521301 8497141
303.1601257 124774.2109375
327.2326965 1310426
329.209137 96091.484375
366.4330444 90568.6953125
371.1609802 423011.59375
371.1727295 339397.3125
371.2222595 58797768
371.2713318 352375.71875
371.283905 454248.03125
394.8638916 94688.390625

NAME: Lupulone C
msLevel: MS2
RETENTIONTIME: 16.81135
centroided: TRUE
PRECURSORMZ: 429.1886
precursorCharge: 0
TITLE: msLevel 2; retentionTime 1008.681; scanNum NA; scanIndex 0; precMz 429.1886; precCharge 0
SMILES: CC(=CCC1(CC=C(C)C)C(=C2CC(C(C)(C)O)OC2=C(C(=O)CC(C)C)C1=O)O)C
FORMULA: C26H38O5
Num Peaks: 82
40.06280899 3188.1474609375
46.31298447 2744.826171875
47.69515991 4733.8208007813
47.69662476 29645.71484375
61.83791351 2761.2868652344
63.60152435 2412.716796875
76.49810791 2838.6591796875
90.4805603 2319.6157226563
93.27709961 2838.7824707031
105.9584427 2812.04296875
107.6535568 2667.1000976563
111.0815735 4273.6274414063
123.0815887 3350.748046875
125.0608749 20968.58203125
150.0326385 2773.4094238281
163.0762329 2660.4868164063
173.0970612 3718.1311035156
177.0191498 6294.53515625
179.0713348 4457.9047851563
191.0349884 6117.9653320313
195.0666199 11197.0146484375
196.0740356 13473.912109375
201.0187378 3762.1154785156
203.0348816 4282.1997070313
208.0744934 3198.6875
217.086731 20488.333984375
219.0662537 7231.1333007813
221.1549835 3591.94140625
223.0609894 7203.5209960938
226.6764679 3766.2907714844
231.0661469 6220.9702148438
233.0817261 40785.49609375
234.0899048 7034.6235351563
235.1346588 3374.8051757813
236.0686035 16221.0380859375
243.06633 7344.259765625
245.0821228 16663.27734375
245.1186371 3363.1262207031
246.0903015 2794.7575683594
247.0973816 17493.798828125
247.1335907 6395.751953125
251.1289825 2737.1169433594
257.0821838 3303.5014648438
257.1545715 8806.9384765625
259.0975647 109583.984375
259.1331787 13146.9130859375
259.1703491 3020.4716796875
261.0769653 9449.1669921875
265.1450806 19577.716796875
273.1496887 4489.8969726563
275.1289062 6625.7060546875
277.1076355 15702.328125
277.1443481 4777.3046875
283.1339722 16655.908203125
286.12146 3886.2358398438
287.1287537 27636.888671875
289.1442566 3869.1328125
292.1311646 8474.267578125
299.1299744 7062.5288085938
300.3609619 2882.6350097656
301.1444092 470854.53125
302.1529541 17011.744140625
303.1233826 3237.0385742188
304.130127 5342.1552734375
305.1390686 24303.1953125
317.1393433 154472.8125
317.1633911 6095.984375
327.2330933 4727.9365234375
329.2130737 5332.0288085938
331.1567993 2712.5068359375
331.22052 2783.3271484375
343.1915894 46455.44140625
345.1708069 32864.2109375
345.1971436 3709.1123046875
345.2085876 3632.2651367188
359.1863708 6169.8579101563
360.1940002 59003.0234375
361.1731262 5842.5380859375
361.2019653 99717.75
371.2216797 12802.1240234375
429.2642517 790587.3125
430.0491943 2907.0249023438

NAME: Benzyl humulone
msLevel: MS2
RETENTIONTIME: 16.88215
centroided: TRUE
PRECURSORMZ: 395.1858
precursorCharge: 1
TITLE: msLevel 2; retentionTime 1012.929; scanNum NA; scanIndex 0; precMz 395.1858; precCharge 1
SMILES: CC(=CCC1=C(C(CC=C(C)C)(C(=O)C(=C1O)C(=O)Cc1ccccc1)O)O)C
FORMULA: C24H28O5
Num Peaks: 33
41.32875824 2490.4978027344
42.38627625 2145.0942382813
43.35646439 2756.546875
43.90994263 2851.0166015625
46.69248962 2747.7155761719
51.47273254 2574.3596191406
51.62570953 2269.734375
75.94232941 2592.505859375
92.02645874 2907.1340332031
102.9486313 2493.2426757813
111.7101288 2850.1826171875
135.0814972 10144.46484375
151.0037689 3033.1791992188
164.0116882 4328.3364257813
165.0194855 2654.7607421875
196.1417084 2461.6740722656
205.0496826 3710.9797363281
207.0660553 24050.5625
213.0557404 6638.4995117188
226.6689606 2727.0463867188
235.0605774 22716.99609375
241.0503845 12908.8935546875
243.0660553 5494.9907226563
249.9439545 2602.0734863281
255.0660858 55148.40234375
258.0535889 5788.3583984375
271.0609741 7731.78125
283.0610962 66098.1640625
283.0978699 6602.982421875
311.0931396 4373.2133789063
326.1158752 272265.78125
353.0036926 2706.8391113281
395.1863098 79750.609375

NAME: LUP28
msLevel: MS2
RETENTIONTIME: 16.9625166666667
centroided: TRUE
PRECURSORMZ: 447.2756
precursorCharge: 1
TITLE: msLevel 2; retentionTime 1017.751; scanNum NA; scanIndex 0; precMz 447.2756; precCharge 1
FORMULA: C26H40O6
Num Peaks: 34
40.76425552 2455.0844726563
49.69645691 3012.6901855469
49.69777679 8847.6552734375
49.86595154 2513.3095703125
51.76833725 2389.6696777344
52.60632324 2464.0805664063
55.12679291 2790.72265625
61.37265015 2289.8779296875
64.95042419 2534.4616699219
68.56333923 2973.2075195313
87.42852783 2248.9594726563
92.72977448 2464.4978027344
99.75156403 2728.0285644531
106.644577 2577.4631347656
127.3500443 2267.9443359375
129.4812927 2704.8859863281
173.0207672 2352.16015625
184.8622894 2534.8854980469
221.0820312 6500.115234375
221.2451477 2490.6306152344
226.6750641 2987.8522949219
233.0813446 6416.283203125
259.0972595 10411.115234375
287.1292725 6318.0024414063
289.1439209 3461.3825683594
301.1444702 62686.7578125
302.1514893 3456.8540039063
307.0875549 2633.7111816406
329.1751099 3937.3674316406
344.1981201 3738.2111816406
389.232666 4102.9345703125
392.7795105 2584.1201171875
429.617981 2380.6447753906
447.2748108 197054.59375

NAME: dehydrolupulone E​
msLevel: MS2
RETENTIONTIME: 17.01935
centroided: TRUE
PRECURSORMZ: 413.2329
precursorCharge: 1
TITLE: msLevel 2; retentionTime 1021.161; scanNum NA; scanIndex 0; precMz 413.2329; precCharge 1
SMILES: CC(=CCC1=C2C(CC=C(C)C)(C=C(C(C)(C)O)O2)C(=O)C(=C1O)C(=O)C(C)C)C
FORMULA: C25H34O5
Num Peaks: 44
45.0119133 2613.9289550781
45.17844772 2784.5112304688
45.91391373 3736.0935058594
45.91529846 23678.78125
58.82242584 2506.9008789063
61.25249863 2683.1235351563
110.9662094 2791.3356933594
111.0450897 13367.1748046875
194.0582886 5581.0693359375
203.0708008 3238.7209472656
205.0509949 2836.1501464844
207.0661469 7807.5473632813
217.0872498 14126.9873046875
219.0660553 52716.671875
231.0661774 9602.42578125
232.074646 3635.1188964844
233.0815735 5742.3247070313
243.0664825 8164.0498046875
243.1388702 6798.0556640625
245.117981 8854.16015625
247.0972748 17640.16796875
259.0969238 3658.4997558594
261.1128845 7898.3984375
262.120636 11183.19921875
269.1186523 15293.0732421875
271.1702881 3060.3981933594
272.1057129 3920.1323242188
273.1129761 24237.857421875
274.1209717 6396.9365234375
275.0931396 4612.8369140625
275.1289978 20378.837890625
287.1286926 518124.96875
289.1087952 3957.7255859375
300.1734009 3209.9560546875
301.1081543 21552.271484375
301.1446533 8758.5625
315.1602783 12503.4296875
316.1661682 2480.357421875
330.1831055 14703.1552734375
344.1625671 36266.9921875
345.2071533 5876.6845703125
369.2419128 3622.2023925781
413.2330017 587547.6875
413.3044739 3608.5363769531

NAME: Humulone
msLevel: MS2
RETENTIONTIME: 17.0704333333333
centroided: TRUE
PRECURSORMZ: 361.2013
precursorCharge: 1
TITLE: msLevel 2; retentionTime 1024.226; scanNum NA; scanIndex 0; precMz 361.2013; precCharge 1
SMILES: CC(=CCC1=C(C(CC=C(C)C)(C(=O)C(=C1O)C(=O)CC(C)C)O)O)C
FORMULA: C21H30O5
Num Peaks: 71
40.13393784 1752771.625
44.7437706 167946.84375
45.95088959 179495.546875
72.82603455 208998.4375
73.03393555 232606.828125
77.04649353 211897.5
80.32082367 181412.015625
95.84702301 175154.390625
98.00054932 195325.53125
121.1417999 184979.609375
123.0087051 353829.125
124.0164413 325572.1875
125.0606995 933532
127.5182953 165579.25
137.0242157 238853.453125
138.0323639 322884.46875
145.4421082 181972.1875
150.0319519 327807.4375
151.0037384 901047.125
153.0194244 197568.53125
153.8857574 165255.609375
163.003418 218222.921875
163.0761871 195254.65625
163.7467194 161362.734375
165.0190735 1167887.625
168.0062256 1029303.9375
178.0267029 382149.28125
179.0711823 2901484.5
180.0789642 1277171.5
181.0141449 676209.0625
190.0638123 312944.03125
191.0709686 197258.796875
193.0139771 3199415.25
194.6735535 173742.65625
196.0745239 355453.0625
203.0713959 334589.6875
205.0869293 314587.84375
207.0660706 6902623.5
207.078537 373282.6875
208.0735321 567025.6875
209.081604 2656271.5
221.0457458 484187.6875
221.0817566 20266250
221.0961609 307472.34375
224.068924 2420625.25
226.677475 230425.6875
231.0662231 444286.90625
235.0610352 658214.375
236.0687714 4639362.5
236.141983 549365.6875
237.0766754 5085479.5
247.1335602 369755.78125
249.0766449 31393532
249.1118011 3022247.25
250.0843658 282343.71875
251.1287537 299381.59375
259.0985413 389420.09375
263.1288452 456674.78125
264.1365356 382569.21875
274.1209106 420821.34375
275.1289673 859179.8125
277.1079102 3205699.5
291.1235046 468004.9375
292.0876465 793097.8125
292.1312561 127317384
292.164978 712069.1875
292.1745605 702473.125
292.1858215 262809.75
292.2594299 203900.4375
343.1913757 1064198.5
361.2018738 42887208

NAME: XAN22
msLevel: MS2
RETENTIONTIME: 17.1225166666667
centroided: TRUE
PRECURSORMZ: 443.2798
precursorCharge: 1
TITLE: msLevel 2; retentionTime 1027.351; scanNum NA; scanIndex 0; precMz 443.2798; precCharge 1
FORMULA: C27H40O5
Num Peaks: 105
41.24736404 43656.4375
41.57930374 7758.2451171875
49.06144333 8014.5239257813
49.252388 17861.357421875
49.25387955 137992.78125
64.61273193 7265.580078125
65.51278687 7950.0771484375
79.94764709 8308.9755859375
81.03453827 17500.958984375
82.60864258 7946.2192382813
83.01393127 36962.25
98.21923065 7458.2006835938
98.40784454 7917.5751953125
104.2354202 7273.32421875
124.0164185 38432.84765625
133.0657654 10415.41796875
137.024231 21756.001953125
138.0324249 15870.6044921875
147.0817719 16412.8125
149.0244598 21682.509765625
149.097168 23641.978515625
161.5454102 7910.716796875
162.0320129 9256.9853515625
163.0769043 16059.1103515625
164.083847 9387.791015625
166.0270233 156937.5
173.0969543 8531.240234375
175.0762329 19639.966796875
176.6223145 9375.01171875
177.0554352 10588.240234375
179.0348663 73117.46875
189.0926971 11908.3017578125
190.0261383 10940.455078125
191.0235596 10918.4423828125
191.0348511 452825.03125
191.0711975 60460.97265625
192.0790863 129810.7578125
193.0871277 24911.541015625
194.8060608 8262.0517578125
199.0767975 10905.4921875
203.0352173 8570.9501953125
203.0711365 34334.87109375
203.1076965 11993.3017578125
204.0424652 51078.4375
205.0868225 98479.6796875
207.6168671 7268.9047851563
215.0347595 13585.228515625
215.1074066 27112.4921875
215.144104 9908.5712890625
217.086853 359029.625
217.1231995 13071.44921875
217.1599731 22029.083984375
218.1310577 8851.310546875
219.0660248 31967.646484375
219.1024323 22267.896484375
219.1390839 9710.83984375
231.0660095 9307.767578125
231.1028137 18211.57421875
231.1401672 10158.2421875
231.2097778 7982.9565429688
232.1470947 27920.787109375
233.0821533 25346.337890625
234.0894775 185985.671875
238.0843048 14660.9892578125
243.0660553 68882.0234375
244.0739594 37032.59375
245.081665 156457.125
245.1181183 50694.17578125
247.0973511 303523.0625
251.0931396 16420.669921875
259.0973206 2983473.5
259.1326599 80551.5703125
259.1702881 56803.97265625
260.1418152 154795.953125
261.1494751 179717.515625
263.0923767 65459.1875
273.1123047 10356.470703125
274.1567383 30152.73828125
285.2233887 13572.7705078125
287.1287537 171986.984375
288.1373901 11109.857421875
289.1430664 16150.2470703125
301.1438904 75551.0234375
302.1521301 443613.40625
303.1595459 20060.0234375
306.1471558 81317.140625
313.1444092 274999.40625
317.139801 9978.1005859375
319.1548767 101780.3125
324.771637 7927.3818359375
327.2330017 161706.875
329.2121277 669224.125
331.1290283 12153.23828125
331.1549377 453617.53125
331.1807861 12638.0634765625
341.1734009 8151.0126953125
356.1977234 13264.9638671875
357.2084656 15201.0888671875
359.186554 15257.1162109375
371.2225342 1087414.125
374.2093201 147431.078125
381.2807617 17488.28515625
425.2693787 133956.9375
443.2798767 3381275
443.3605042 22240.498046875

NAME: Adhumulone
msLevel: MS2
RETENTIONTIME: 17.2009166666667
centroided: TRUE
PRECURSORMZ: 361.2014
precursorCharge: 1
TITLE: msLevel 2; retentionTime 1032.055; scanNum NA; scanIndex 0; precMz 361.2014; precCharge 1
SMILES: CCC(C)C(=O)C1=C(C(=C(C(CC=C(C)C)(C1=O)O)O)CC=C(C)C)O
FORMULA: C21H30O5
Num Peaks: 81
40.13282776 102223.9609375
40.13393784 890018.375
40.43305588 67254.46875
44.83933258 60104.03125
52.56166077 65423.171875
60.81249619 65674.09375
73.03147125 79770.7890625
73.03383636 98039.3125
89.41497803 78790.109375
98.0007782 100367.640625
102.69664 69315.5859375
123.0088425 150953.046875
124.016449 72206.8828125
125.0606232 554370.625
135.0813904 322354.625
137.0241699 69807.890625
149.0971069 74722.28125
151.0035858 227452.5
151.040329 89151.390625
152.0480194 88375.96875
153.0196075 122205.9140625
163.0033722 100515.7734375
163.076828 75451.15625
164.0112762 204974.546875
165.0194702 373317.5
165.0558319 116843.6953125
168.0062103 262294.09375
177.0921783 103719.234375
178.0632172 94697.4140625
179.071167 1319428
180.079071 434103.25
181.0142212 206012.828125
191.0714569 123006.78125
192.0062561 69295.8671875
192.0420532 78270.421875
193.0140076 1064371
193.0866241 98557.15625
195.0660858 163201.453125
196.0735779 157522.453125
200.2940674 66902.6328125
200.9032593 74748.3828125
203.0714722 85685.1484375
205.0878143 96782.71875
207.0660553 3327746
208.0740356 110509.171875
209.0815887 1434394.875
221.0450134 234584.46875
221.0817108 8144858
221.0960541 167109.34375
221.1186218 75847.7109375
224.0688477 996040.9375
231.0668488 145610.8125
231.1020203 75664.390625
235.0610352 930243
235.0974274 247451.796875
235.1340027 93572.84375
236.0687866 1145120.375
236.1414795 246674.75
237.0767365 2117324.5
237.0883484 42604.140625
247.1337585 274999.6875
249.0765839 13553863
249.1118317 1286837.125
251.1288147 215589.765625
259.0977173 88728.3671875
263.0924683 143742.109375
263.1279297 253422.359375
264.1002197 86161.7109375
264.1348267 111221.7421875
273.1133118 129729.3515625
274.1199341 198171.59375
275.1286621 280559.21875
277.1080017 1317809.5
291.1234131 213780.3125
292.1311951 53328924
292.1744995 307289.53125
317.4143677 78548
343.1910095 764064.1875
361.2017517 22062122
385.0461731 75137.0625
387.7495422 61919.9296875

NAME: dihydrocohumulone
msLevel: MS2
RETENTIONTIME: 17.2456333333333
centroided: TRUE
PRECURSORMZ: 349.2016
precursorCharge: 1
TITLE: msLevel 2; retentionTime 1034.738; scanNum NA; scanIndex 0; precMz 349.2016; precCharge 1
SMILES: CC(C)CCC1=C(C(CC=C(C)C)(C(=O)C(=C1O)C(=O)C(C)C)O)O
FORMULA: C20H30O5
Num Peaks: 70
40.24043274 8493.0966796875
43.43403244 8865.3671875
51.78609848 8723.9736328125
52.96147156 7984.69921875
53.97496033 9157.259765625
54.31758881 8119.3979492188
70.03358459 11833.3486328125
77.95304871 7615.3828125
82.66783142 7774.6313476563
85.06572723 12792.23046875
93.79161072 8034.6650390625
102.5063171 7899.3940429688
103.5432892 8176.9345703125
103.9586334 8328.5419921875
107.0502243 12115.72265625
107.2645645 7158.2387695313
107.4281158 6836.8774414063
111.0452423 8849.6357421875
123.0810471 10957.8291015625
125.0242767 21110.08203125
125.0607376 39507.328125
128.9109192 8357.7265625
150.2257843 7692.9018554688
151.0763855 18868.0234375
153.0191803 15069.142578125
155.2918701 7902.2758789063
162.7340698 8911
165.0917664 14169.1103515625
175.2859955 8433.306640625
177.0554352 57061.84375
178.0633392 13803.7822265625
179.0712433 33211.0859375
181.0142059 64015.86328125
181.0508575 19733.427734375
181.0873413 15570.796875
182.0219879 34627.20703125
191.0713959 22452.322265625
193.0864716 22009.78125
194.0592957 10381.1162109375
195.0292969 42543.484375
195.0661316 829174.5625
205.0501251 19040.193359375
209.0818176 366617.40625
210.0530548 10978.75
223.0610352 1438437.875
224.0690002 235971.609375
225.3498688 9796.2236328125
226.6733856 16256.2109375
235.1341858 34293.20703125
237.0767059 740891.4375
237.0879669 12701.9404296875
237.0927887 15721.4814453125
237.1127319 29504.712890625
238.0842438 85607.890625
251.1282501 15892.7236328125
253.1442871 18800.123046875
262.1209412 25960.744140625
263.1289978 32401.37109375
265.1077576 29700.169921875
279.12323 25928.86328125
280.0906982 44319.4375
280.098999 27284.970703125
280.1312561 6769567
280.1633301 48835.984375
280.1714478 53378.13671875
280.1829224 18519.85546875
281.1365967 9218.7998046875
327.0953369 8161.9370117188
331.1912231 98543.5234375
349.2019043 2408606.25

NAME: lupulone E
msLevel: MS2
RETENTIONTIME: 17.3185833333333
centroided: TRUE
PRECURSORMZ: 415.2486
precursorCharge: 1
TITLE: msLevel 2; retentionTime 1039.115; scanNum NA; scanIndex 0; precMz 415.2486; precCharge 1
SMILES: CC(=CCC1=C2C(CC=C(C)C)(CC(C(C)(C)O)O2)C(=O)C(=C1O)C(=O)C(C)C)C
FORMULA: C25H36O5
Num Peaks: 58
40.12061691 2263.9665527344
44.10007095 2490.5239257813
46.09624863 2509.1684570313
46.13922501 17423.439453125
47.13608551 2673.7297363281
49.52304077 2290.3920898438
52.83880615 2345.7678222656
54.51295853 2502.3110351563
57.39762497 2482.0146484375
71.37406158 2663.0568847656
76.04258728 2461.0759277344
78.58690643 2515.1044921875
79.05519104 3413.9484863281
85.33917236 2446.5874023438
102.8423157 2583.1491699219
111.0448303 11373.9833984375
118.2036438 2346.9006347656
134.4317017 2802.0151367188
150.6529999 2637.349609375
152.0115662 3059.7736816406
194.0578918 14814.978515625
195.0660248 9773.4345703125
207.0663452 12458.9111328125
208.0740814 3025.3132324219
219.0659332 55219.87890625
219.1372833 2716.1938476563
231.0663147 3212.2585449219
233.0814056 11505.83984375
235.0593262 2909.5378417969
243.0661163 3722.4128417969
245.1181183 6175.2236328125
247.0971985 5157.5224609375
261.1130066 14988.2138671875
262.1213684 14082.8935546875
263.1121216 4038.6999511719
263.1288147 50076.29296875
269.1169128 3764.1469726563
271.1705933 2568.0139160156
273.1134949 24632.015625
275.1282349 8447.4765625
278.1159363 13855.623046875
285.1127319 7225.1298828125
285.1862793 3662.6459960938
287.1286926 123854.53125
289.1436462 3650.4138183594
291.1238403 17284.8984375
303.1015015 5472.6103515625
303.1236267 101966.359375
315.1602783 20689.3359375
316.1672668 3625.3828125
329.1761169 45882.01171875
331.1553955 9332.619140625
345.171051 4959.396484375
346.178894 25855.796875
347.1861877 3881.3454589844
353.2487488 4387.552734375
415.2486877 438561.34375
427.486969 2792.3400878906

NAME: Postlupulone
msLevel: MS2
RETENTIONTIME: 17.4819166666667
centroided: TRUE
PRECURSORMZ: 385.2376
precursorCharge: 1
TITLE: msLevel 2; retentionTime 1048.915; scanNum NA; scanIndex 0; precMz 385.2376; precCharge 1
SMILES: CCC(=O)C1=C(C(=C(C(CC=C(C)C)(CC=C(C)C)C1=O)O)CC=C(C)C)O
FORMULA: C24H34O4
Num Peaks: 84
41.40154648 74726.7265625
41.46524429 77727.6640625
42.39550018 73839.6875
42.80343246 272204.59375
42.80467224 1779155.875
42.82397461 95893.1015625
44.52732086 91103.8203125
45.84141541 91360.4609375
47.74236298 81662.0859375
48.78017426 86258.40625
53.26144028 81686.3828125
63.61379242 77576.390625
72.03110504 86010
73.02933502 80332.2265625
93.06456757 82629.6796875
95.05017853 200419.15625
96.31099701 88076.6484375
97.02936554 672018.25
108.6883087 75177.625
108.9562149 80648.2890625
112.9855804 87912.5234375
116.0238953 77219.765625
117.8718796 76715.90625
124.8219833 82035.609375
138.0324554 117237.953125
151.0404816 119192.2421875
152.0116272 264034.09375
161.0968323 77773.6796875
163.1122742 88182.8125
175.0761871 116366.4453125
180.0426025 1690371.625
188.9558563 76650.2734375
190.0268707 150100.984375
190.0626373 98700.8125
192.0424805 109030.078125
193.0505219 1129104
199.0760803 92601.8125
201.0187836 76651.3125
201.0561829 120386.1328125
201.1282806 116092.015625
205.0376892 125289.15625
205.0504303 6012114
205.0870972 233863.25
215.2008362 89962.8203125
217.0503693 221233.3125
217.0866852 1193489.75
217.1230316 110921.375
218.0584106 281070.96875
226.6761932 94088.234375
227.1065979 125306.34375
229.0496521 174535.171875
229.1230927 384785.03125
230.058197 164450.578125
231.0659943 116289.765625
231.1024323 1264289.25
233.0814056 472347.28125
243.0662537 305727.0625
245.0822601 113722.15625
245.1182556 482773.3125
247.0968933 282056.25
248.0885315 101957.7265625
248.1052094 2461597.5
255.1020966 254815.1875
258.0888977 412024.15625
259.0974121 1524461.375
259.1331482 98795.1640625
260.1048279 158040.328125
261.1130676 4064982
261.131073 87869.2734375
273.0749817 202990.15625
273.112915 37693168
273.1512146 200863.15625
273.1856079 318807.25
287.1289368 110951.203125
288.1728821 394938.90625
301.1442871 2181224.75
315.1602173 652501.125
316.1678467 4924217
316.1919861 108087.546875
341.2484131 1006448.625
382.7396851 86646.8125
385.1737671 338461.34375
385.2379761 44070868
385.303772 303932.09375

NAME: XAN24
msLevel: MS2
RETENTIONTIME: 17.5693333333333
centroided: TRUE
PRECURSORMZ: 457.2959
precursorCharge: 1
TITLE: msLevel 2; retentionTime 1054.16; scanNum NA; scanIndex 0; precMz 457.2959; precCharge 1
FORMULA: C28H42O5
Num Peaks: 38
41.63193512 2475.6013183594
50.81111145 3950.5229492188
65.87798309 2854.4147949219
68.08848572 2354.587890625
69.16340637 2286.3913574219
72.5345993 2793.8098144531
77.39693451 2575.3176269531
77.42459106 2429.7827148438
79.31117249 2672.4992675781
80.16142273 2503.0747070313
95.75995636 2519.1723632813
108.0133896 2217.7138671875
136.5569763 2532.2980957031
139.9361115 2380.5942382813
191.0348663 10264.021484375
191.1009216 2619.2338867188
196.4824219 3188.7619628906
217.086731 4350.8422851563
226.6748962 4071.8640136719
234.0903473 4382.6342773438
239.2709961 2484.9672851563
247.0977936 4523.2045898438
259.097229 58078
260.1419373 2304.7856445313
287.1289978 3236.0942382813
302.1517944 7783.8188476563
320.1615295 3092.5339355469
322.2146606 2983.9111328125
327.1595459 3272.5031738281
329.2119751 7498.4594726563
345.1716309 11936.2666015625
371.2226257 26756.61328125
373.4550781 2594.8168945313
388.2247009 3187.1174316406
439.2867737 3145.2211914063
444.4441223 2600.4018554688
457.2651062 2928.2863769531
457.2957764 87390.8359375

NAME: LUP24
msLevel: MS2
RETENTIONTIME: 17.6290333333333
centroided: TRUE
PRECURSORMZ: 483.3111
precursorCharge: 1
TITLE: msLevel 2; retentionTime 1057.742; scanNum NA; scanIndex 0; precMz 483.3111; precCharge 1
SMILES: CC(=CCC1=C2C(CC=C(C)C)(CC(C(C)(C)O)O2)C(=O)C(CC=C(C)C)(C(=O)C(C)C)C1=O)C
FORMULA: C30H44O5
Num Peaks: 40
47.48150635 2326.2258300781
47.53356171 2440.0439453125
49.53000641 2638.1965332031
49.75983047 2773.611328125
53.70167923 5320.1142578125
56.38818741 2243.1716308594
94.70812225 2339.1865234375
96.07222748 2504.6760253906
101.3260727 2390.5495605469
102.2934189 2269.9885253906
104.512413 2555.8347167969
111.0450668 4637.1508789063
139.2429657 2364.0129394531
140.2223663 2682.19140625
140.7093658 2298.9418945313
143.5223846 2438.49609375
169.5624542 2171.3190917969
194.0583649 15845.546875
207.0660248 8708.1083984375
214.8051147 2400.2934570313
219.0660706 46055
226.6756439 4921.7099609375
233.0817413 2605.4760742188
242.1518402 2330.4621582031
247.0968628 3702.8503417969
262.1213379 12787.44140625
263.129303 23472.0234375
273.1130981 5084.5170898438
275.1288452 10928.623046875
287.0498962 2486.15625
287.1287842 65670.90625
315.1604004 7504.1723632813
329.1753845 5567.0717773438
330.1833801 6119.40234375
331.1540527 7154.4384765625
345.1708374 17546.31640625
369.2069702 8338.5751953125
371.1864929 5778.732421875
483.3109741 106824.0546875
483.3557739 4303.0102539063

NAME: dehydrolupulone D
msLevel: MS2
RETENTIONTIME: 17.7053666666667
centroided: TRUE
PRECURSORMZ: 427.2487
precursorCharge: 1
TITLE: msLevel 2; retentionTime 1062.322; scanNum NA; scanIndex 0; precMz 427.2487; precCharge 1
SMILES: CC(=CCC1=C2C(CC=C(C)C)(C=C(C(C)(C)O)O2)C(=O)C(=C1O)C(=O)CC(C)C)C
FORMULA: C26H36O5
Num Peaks: 66
40.31692886 2694.0104980469
42.70456696 2741.1518554688
44.05989838 2685.1333007813
45.91426468 2464.6206054688
47.47262573 25123.361328125
51.38872147 2333.0368652344
52.94850922 2235.2119140625
57.03460312 3806.6538085938
58.7765007 2495.2849121094
71.41648102 2577.9699707031
88.67649078 2832.4743652344
89.49246979 2598.6040039063
91.44966125 2394.7377929688
101.8269043 3016.8918457031
108.0976181 2805.3757324219
124.6612549 2322.5646972656
125.0607605 17956.748046875
129.007782 2433.9897460938
152.0116425 4768.099609375
161.0610046 4372.6137695313
162.0320282 2383.8408203125
179.1271362 2428.8369140625
189.0919189 3525.3198242188
191.0699615 2930.6220703125
191.1082458 3024.4304199219
202.0270996 3756.5095214844
205.0868378 3020.7368164063
208.0742035 10205.576171875
217.0866852 28106.017578125
221.0820312 8171.3100585938
231.0664825 5395.4174804688
233.081665 72277.40625
243.0661926 6880.6489257813
245.0818787 11123.4990234375
245.1184845 8370.849609375
247.0975952 6832.529296875
257.0819702 2897.0522460938
257.1545715 7221.7109375
258.0897217 2944.2009277344
259.1334229 11900.9208984375
260.1430664 3178.2902832031
261.1132507 26850.302734375
271.1334229 3306.3422851563
271.9695129 2964.7268066406
273.1134949 6826.8569335938
275.1286316 8535.3681640625
276.1366882 15440.5380859375
283.1342163 10132.224609375
286.1208191 4430.2470703125
287.1290283 27834.1171875
288.1369629 3554.9838867188
289.1091919 2668.9011230469
289.1440735 34601.1171875
301.1443176 620943.9375
303.1223755 4174.9482421875
308.5548401 2618.3662109375
314.1876221 4505.4267578125
315.1233826 21103.6171875
315.1601562 6966.1577148438
329.1755676 25876.734375
343.1552429 4063.6323242188
343.1906738 6969.8310546875
344.1992188 27637.98046875
358.1784973 30098.501953125
383.2590332 4052.2001953125
427.2486267 665780.625

NAME: Adlupulone C
msLevel: MS2
RETENTIONTIME: 17.8282166666667
centroided: TRUE
PRECURSORMZ: 429.2639
precursorCharge: 0
TITLE: msLevel 2; retentionTime 1069.693; scanNum NA; scanIndex 0; precMz 429.2639; precCharge 0
SMILES: CCC(C)C(=O)C1=C(C(=C2C(CC=C(C)C)(CC(C(C)(C)O)O2)C1=O)CC=C(C)C)O
FORMULA: C26H38O8
Num Peaks: 45
43.68967438 2470.62890625
47.69655609 11194.830078125
58.35251617 2452.8825683594
73.56161499 3186.9438476563
75.68208313 2642.5234375
76.98053741 2593.1198730469
103.7136993 2963.4377441406
121.5459061 2505.1755371094
125.0608673 12012.935546875
136.6889038 2276.4157714844
138.7550812 2229.12890625
152.0112305 5650.1748046875
177.0181732 2812.0041503906
208.0740204 7282.7524414063
209.0817413 5079.4541015625
210.1943207 2625.9460449219
217.0869141 4155.9555664063
221.0826111 4147.1396484375
226.6723785 3808.3933105469
233.0817108 36521.53515625
234.4324188 3199.6662597656
245.0812836 4093.6286621094
247.0975037 6707.6459960938
259.132782 5748.6552734375
261.1129761 3087.7895507813
267.0460205 2658.7670898438
271.1325378 2984.2895507813
275.1289368 6503.1411132813
276.1364441 6783.69921875
277.144104 25573.96875
287.1288757 15671.51953125
289.1443176 9866.072265625
292.1316528 6905.3349609375
299.12854 10409.47265625
301.1444702 67253.2265625
305.13974 7545.0991210938
317.1393738 51509.66796875
327.1624756 2642.4291992188
329.1749878 10305.6064453125
343.191803 21486.40234375
345.1703796 6639.2197265625
360.1940918 17542.59375
361.2019958 9722.23828125
411.2541809 5454.4174804688
429.2643127 282323.15625

NAME: dihydrohumulone
msLevel: MS2
RETENTIONTIME: 17.8970166666667
centroided: TRUE
PRECURSORMZ: 363.2171
precursorCharge: 1
TITLE: msLevel 2; retentionTime 1073.821; scanNum NA; scanIndex 0; precMz 363.2171; precCharge 1
SMILES: CC(C)CCC1=C(C(CC=C(C)C)(C(=O)C(=C1O)C(=O)CC(C)C)O)O
FORMULA: C21H32O5
Num Peaks: 63
40.35677719 61405.1640625
40.3579216 373550.59375
43.44480133 27976.162109375
44.64851761 26209.439453125
44.7335434 24219.490234375
44.90592194 28666.71875
67.89860535 28173.55859375
68.82104492 25971.9609375
73.53772736 52616.5
100.671669 26861.810546875
106.5477524 28168.984375
107.0502701 29767.3984375
110.8543549 27489.59375
115.7619781 25985.046875
125.0607147 144607.6875
134.8117523 24575.37109375
151.0034332 34236.97265625
153.0189362 134517.359375
154.0268555 41303.5625
164.0478363 26879.94921875
165.0919342 35562.15234375
166.0271454 71691.4296875
167.0349121 66537.8984375
173.3422546 26446.736328125
180.0064697 36897.07421875
181.0140228 757394.3125
181.0868988 46316.53125
182.0219879 400254.09375
191.0713196 61163.5234375
193.0867767 90944.515625
195.0297546 468976.75
195.0657806 80151.359375
207.1027374 46609.56640625
209.0817719 2941442.75
210.089386 61121.32421875
219.0661774 45451.75390625
220.0742493 25978.884765625
223.0607452 42063.38671875
223.0974426 1521370.625
224.0684967 54947.421875
226.6742401 29057.083984375
233.0817719 28339.33984375
236.0678864 35634.0234375
237.0766449 4866005.5
237.1484985 35236.54296875
238.0844879 2060802.125
249.1493988 71393.421875
251.0923309 2852161
251.127121 182925.3125
252.0995483 76869.875
261.111969 31263.546875
261.1494141 76228.390625
265.1448975 55253.1953125
267.1604614 49276.7578125
276.1362305 115093.2578125
277.1445312 213743.984375
279.123291 243393.359375
293.138916 88105.296875
294.1030884 140646.21875
294.1469116 24453374
345.2071228 281407.34375
363.1579895 71558.671875
363.2174683 9710906

NAME: dehydroadlupulone D
msLevel: MS2
RETENTIONTIME: 17.9045833333333
centroided: TRUE
PRECURSORMZ: 427.2492
precursorCharge: 1
TITLE: msLevel 2; retentionTime 1074.275; scanNum NA; scanIndex 0; precMz 427.2492; precCharge 1
SMILES: CCC(C)C(=O)C1=C(C(=C2C(CC=C(C)C)(C=C(C(C)(C)O)O2)C1=O)CC=C(C)C)O
FORMULA: C26H36O5
Num Peaks: 32
41.20412064 2285.2429199219
43.31761551 2381.0620117188
44.94012451 2338.5634765625
47.47251129 5411.0307617188
57.81291962 2768.9763183594
98.49163055 2318.64453125
99.42751312 2244.34375
123.6861267 2646.5524902344
125.0606308 4911.4467773438
133.6594391 2551.2475585938
149.1994934 2969.595703125
154.7407379 2513.5847167969
168.4846497 2405.2800292969
181.0671692 2678.2463378906
183.2987823 2344.1643066406
209.4766846 2331.8330078125
217.087265 5523.75390625
226.6781311 3645.8796386719
233.0818634 7503.8974609375
261.1134644 3483.5075683594
264.9137878 2341.7465820313
287.128418 3958.7065429688
301.1444702 139250.265625
315.1236877 8103.4208984375
315.1606445 2865.9626464844
329.1748352 5087.3115234375
335.1503296 2743.8327636719
343.1925049 3173.9946289063
358.1779785 17739.984375
413.9547424 2322.3217773438
427.1950684 3817.6892089844
427.2487183 147720.234375

NAME: XAN23
msLevel: MS2
RETENTIONTIME: 17.9266666666667
centroided: TRUE
PRECURSORMZ: 457.2955
precursorCharge: 1
TITLE: msLevel 2; retentionTime 1075.6; scanNum NA; scanIndex 0; precMz 457.2955; precCharge 1
FORMULA: C28H42O5
Num Peaks: 41
48.75346375 2224.7915039063
50.81119156 8509.1142578125
55.53076935 2644.7438964844
78.50784302 2664.7468261719
79.19051361 2559.9660644531
85.08712769 2506.7614746094
101.3687592 2513.5126953125
135.0329895 2562.6240234375
161.365799 2316.0390625
166.0265961 6746.9873046875
179.0345459 4504.0458984375
190.7855682 2418.1350097656
191.034668 25744.025390625
191.0717468 4237.3291015625
192.0787048 6554.7514648438
193.0867462 3350.4912109375
205.086441 5838.208984375
217.086731 14972.990234375
234.0896149 10777.2216796875
243.0665283 3627.1767578125
245.0811462 7217.5200195313
247.0973053 12661.2734375
259.0974121 154812.28125
260.1417847 6912.1528320313
261.1490784 11330.08984375
287.1284485 9787.2919921875
301.1428528 3580.7609863281
302.1520996 19441.55859375
313.1437683 4249.849609375
327.1596375 9825.0146484375
327.2330017 5925.1181640625
329.2116089 36024.265625
333.1683655 4019.5266113281
345.1691284 18261.595703125
368.9332581 2479.0964355469
371.1922607 2907.2114257813
371.2224731 59696.3671875
388.2254333 7704.6953125
439.2857361 7050.7524414063
448.0591125 2596.4350585938
457.2955322 222941.859375

NAME: Colupulone
msLevel: MS2
RETENTIONTIME: 18.03375
centroided: TRUE
PRECURSORMZ: 399.2532
precursorCharge: 1
TITLE: msLevel 2; retentionTime 1082.025; scanNum NA; scanIndex 0; precMz 399.2532; precCharge 1
SMILES: CC(=CCC1=C(C(CC=C(C)C)(CC=C(C)C)C(=O)C(=C1O)C(=O)C(C)C)O)C
FORMULA: C25H36O4
Num Peaks: 79
44.36069107 638532.5625
44.36203766 3442726
47.83527374 112050.1875
49.31367874 129880.9375
57.56955719 117683.15625
61.39398193 127260.65625
68.12490845 116596.578125
71.78336334 142091.859375
85.06578827 240867.984375
87.04533386 148081.75
95.33209229 113578.7265625
99.8115387 133549.828125
99.81488037 174565.59375
109.0657959 381133.28125
111.0450058 1506708.5
120.2706757 116127.71875
130.668457 125855.6171875
131.0865479 152522.5
135.0813599 213911.921875
149.6987457 108911.71875
152.0112 676903.125
165.7141571 113675.1328125
175.0765228 259814.5625
175.1128845 176299.96875
177.1282806 140468.296875
182.312561 131966.53125
190.0273895 128855.671875
194.0582733 2542294
201.0563354 144486.265625
203.0717468 195606.8125
203.1082153 113590.0625
205.0505676 250312.125
205.0867767 346556.28125
207.06604 1677948.125
215.0715942 111934.5546875
217.0870056 1266242.75
217.1230164 182151.609375
219.0661163 11037719
229.0507355 194980.125
231.0662994 493430.09375
231.1025696 122891.65625
231.1384277 273774.25
232.0748291 431510.59375
233.0828705 133477.546875
241.1226044 348003.1875
243.0656586 712678.4375
243.1388702 682116.9375
244.0736542 320051.6875
245.0824127 294482.34375
245.1180267 2287651.25
247.097702 890365.0625
247.1343536 166206.640625
257.117981 119319.1328125
259.133728 961114.25
261.11203 562293.0625
262.1210022 2816435.5
269.1184998 1343088.25
271.1706848 339750.90625
272.1055298 510420.1875
273.1131897 2953151.5
274.1196899 158859.765625
275.1287537 6580287
287.0871887 467540.125
287.1285706 67630688
287.2012634 570015.75
302.1884155 557424.75
315.1600952 3390246.75
329.1762695 990920.25
330.1837158 6119443.5
330.2095337 201328.25
331.1928711 168466.4375
334.5647583 120362.8515625
355.2644348 1871508.75
399.1651917 205767.171875
399.1851501 700337.5625
399.1984558 537415.75
399.25354 87604216
399.3086243 504757.28125
399.3222046 632347.625

